Element Label      Node	Label	S.Mises @Loc 1	S.Mises @Loc 2
645	2	8,76E-03	8,87E-03
1858	2	8,76E-03	8,87E-03
2023	3	3,58E-01	3,88E-01
1648	3	3,58E-01	3,88E-01
1618	5	8,76E-03	8,87E-03
675	5	8,76E-03	8,87E-03
1643	6	1,06E-14	1,06E-14
641	8	2,54E-02	2,55E-02
1622	8	2,54E-02	2,55E-02
671	8	2,54E-02	2,55E-02
1862	8	2,54E-02	2,55E-02
670	9	9,29E-15	1,02E-14
1647	10	6,63E-15	8,10E-15
666	10	6,63E-15	8,10E-15
2725	11	3,58E-01	3,88E-01
840	11	3,58E-01	3,88E-01
836	12	8,25E-02	8,24E-02
2721	12	8,25E-02	8,24E-02
1652	12	8,25E-02	8,24E-02
2027	12	8,25E-02	8,24E-02
1668	16	4,07E-01	4,49E-01
2145	16	4,07E-01	4,49E-01
1672	19	1,31E-01	1,30E-01
1833	19	1,31E-01	1,30E-01
2149	19	1,31E-01	1,30E-01
2741	19	1,31E-01	1,30E-01
1837	20	4,07E-01	4,49E-01
2745	20	4,07E-01	4,49E-01
2764	21	2,63E-01	2,97E-01
2165	21	2,63E-01	2,97E-01
1857	23	2,63E-01	2,97E-01
2174	23	2,63E-01	2,97E-01
1853	24	1,93E-01	1,94E-01
2170	24	1,93E-01	1,94E-01
2169	24	1,93E-01	1,94E-01
2768	24	1,93E-01	1,94E-01
3191	26	2,13E-02	2,16E-02
2224	26	2,13E-02	2,16E-02
2220	27	6,20E-02	6,22E-02
2856	27	6,20E-02	6,22E-02
3187	27	6,20E-02	6,22E-02
2818	27	6,20E-02	6,22E-02
2852	28	2,13E-02	2,16E-02
2814	28	2,13E-02	2,16E-02
2877	31	6,00E-15	5,54E-15
3216	34	1,97E-14	1,90E-14
3212	35	9,20E-15	1,08E-14
2881	35	9,20E-15	1,08E-14
1863	51	1,63E-02	1,99E-02
1858	51	1,63E-02	1,99E-02
1863	52	1,08E-02	1,68E-02
1868	52	1,08E-02	1,68E-02
1873	53	1,81E-02	1,96E-02
1868	53	1,81E-02	1,96E-02
1873	54	4,01E-02	3,64E-02
1878	54	4,01E-02	3,64E-02
1883	55	5,52E-02	6,03E-02
1878	55	5,52E-02	6,03E-02
1888	56	8,19E-02	7,79E-02
1883	56	8,19E-02	7,79E-02
1893	57	1,03E-01	1,02E-01
1888	57	1,03E-01	1,02E-01
1898	58	8,65E-02	9,59E-02
1893	58	8,65E-02	9,59E-02
1898	59	7,98E-02	7,62E-02
1903	59	7,98E-02	7,62E-02
1908	60	9,87E-02	9,34E-02
1903	60	9,87E-02	9,34E-02
1913	61	1,13E-01	1,20E-01
1908	61	1,13E-01	1,20E-01
1918	62	1,44E-01	1,37E-01
1913	62	1,44E-01	1,37E-01
1918	63	1,67E-01	1,64E-01
1923	63	1,67E-01	1,64E-01
1928	64	1,48E-01	1,65E-01
1923	64	1,48E-01	1,65E-01
1928	65	1,47E-01	1,39E-01
1933	65	1,47E-01	1,39E-01
1938	66	1,60E-01	1,58E-01
1933	66	1,60E-01	1,58E-01
1943	67	1,77E-01	1,76E-01
1938	67	1,77E-01	1,76E-01
1948	68	1,92E-01	1,99E-01
1943	68	1,92E-01	1,99E-01
1953	69	2,25E-01	2,17E-01
1948	69	2,25E-01	2,17E-01
1953	70	2,50E-01	2,44E-01
1958	70	2,50E-01	2,44E-01
1958	71	2,23E-01	2,49E-01
1963	71	2,23E-01	2,49E-01
1963	72	2,26E-01	2,15E-01
1968	72	2,26E-01	2,15E-01
1968	73	2,37E-01	2,33E-01
1973	73	2,37E-01	2,33E-01
1978	74	2,51E-01	2,50E-01
1973	74	2,51E-01	2,50E-01
1978	75	2,66E-01	2,74E-01
1983	75	2,66E-01	2,74E-01
1988	76	3,02E-01	2,92E-01
1983	76	3,02E-01	2,92E-01
1993	77	3,29E-01	3,20E-01
1988	77	3,29E-01	3,20E-01
1993	78	2,97E-01	3,31E-01
1998	78	2,97E-01	3,31E-01
2003	79	3,03E-01	2,93E-01
1998	79	3,03E-01	2,93E-01
2008	80	3,19E-01	3,03E-01
2003	80	3,19E-01	3,03E-01
2008	81	3,17E-01	3,38E-01
2013	81	3,17E-01	3,38E-01
2013	82	3,64E-01	3,46E-01
2018	82	3,64E-01	3,46E-01
2018	83	3,90E-01	3,81E-01
2023	83	3,90E-01	3,81E-01
1623	147	1,25E-14	1,22E-14
1618	147	1,25E-14	1,22E-14
1623	148	4,57E-15	5,81E-15
1628	148	4,57E-15	5,81E-15
1633	149	4,35E-15	5,06E-15
1628	149	4,35E-15	5,06E-15
1633	150	6,05E-15	5,72E-15
1638	150	6,05E-15	5,72E-15
1643	151	1,07E-14	1,05E-14
1638	151	1,07E-14	1,05E-14
1861	172	2,45E-02	2,46E-02
641	172	2,45E-02	2,46E-02
642	172	2,45E-02	2,46E-02
1862	172	2,45E-02	2,46E-02
643	173	2,16E-02	2,17E-02
1860	173	2,16E-02	2,17E-02
1861	173	2,16E-02	2,17E-02
642	173	2,16E-02	2,17E-02
643	174	1,72E-02	1,73E-02
644	174	1,72E-02	1,73E-02
1859	174	1,72E-02	1,73E-02
1860	174	1,72E-02	1,73E-02
645	175	1,17E-02	1,18E-02
1859	175	1,17E-02	1,18E-02
1858	175	1,17E-02	1,18E-02
644	175	1,17E-02	1,18E-02
645	176	1,20E-14	1,25E-14
650	176	1,20E-14	1,25E-14
655	177	1,55E-14	1,58E-14
650	177	1,55E-14	1,58E-14
660	178	1,51E-14	1,56E-14
655	178	1,51E-14	1,56E-14
665	179	8,34E-15	9,69E-15
660	179	8,34E-15	9,69E-15
670	180	9,20E-15	1,05E-14
665	180	9,20E-15	1,05E-14
670	181	9,10E-15	1,03E-14
669	181	9,10E-15	1,03E-14
669	182	1,13E-14	1,24E-14
668	182	1,13E-14	1,24E-14
667	183	9,69E-15	9,99E-15
668	183	9,69E-15	9,99E-15
666	184	7,17E-15	7,70E-15
667	184	7,17E-15	7,70E-15
1647	185	6,95E-15	6,89E-15
666	185	6,95E-15	6,89E-15
661	185	6,95E-15	6,89E-15
1642	185	6,95E-15	6,89E-15
1642	186	6,83E-15	5,06E-15
656	186	6,83E-15	5,06E-15
1637	186	6,83E-15	5,06E-15
661	186	6,83E-15	5,06E-15
651	187	5,41E-15	6,08E-15
1632	187	5,41E-15	6,08E-15
1637	187	5,41E-15	6,08E-15
656	187	5,41E-15	6,08E-15
651	188	3,15E-15	5,55E-15
1632	188	3,15E-15	5,55E-15
1627	188	3,15E-15	5,55E-15
646	188	3,15E-15	5,55E-15
646	189	6,09E-15	6,80E-15
1622	189	6,09E-15	6,80E-15
1627	189	6,09E-15	6,80E-15
641	189	6,09E-15	6,80E-15
672	190	2,45E-02	2,46E-02
1622	190	2,45E-02	2,46E-02
1621	190	2,45E-02	2,46E-02
671	190	2,45E-02	2,46E-02
1621	191	2,16E-02	2,17E-02
673	191	2,16E-02	2,17E-02
1620	191	2,16E-02	2,17E-02
672	191	2,16E-02	2,17E-02
673	192	1,72E-02	1,73E-02
674	192	1,72E-02	1,73E-02
1619	192	1,72E-02	1,73E-02
1620	192	1,72E-02	1,73E-02
1619	193	1,17E-02	1,18E-02
675	193	1,17E-02	1,18E-02
1618	193	1,17E-02	1,18E-02
674	193	1,17E-02	1,18E-02
675	194	1,63E-02	1,99E-02
680	194	1,63E-02	1,99E-02
685	195	1,08E-02	1,68E-02
680	195	1,08E-02	1,68E-02
685	196	1,81E-02	1,96E-02
690	196	1,81E-02	1,96E-02
690	197	4,01E-02	3,64E-02
695	197	4,01E-02	3,64E-02
695	198	5,52E-02	6,03E-02
700	198	5,52E-02	6,03E-02
700	199	8,19E-02	7,79E-02
705	199	8,19E-02	7,79E-02
710	200	1,03E-01	1,02E-01
705	200	1,03E-01	1,02E-01
710	201	8,65E-02	9,59E-02
715	201	8,65E-02	9,59E-02
720	202	7,98E-02	7,62E-02
715	202	7,98E-02	7,62E-02
725	203	9,87E-02	9,34E-02
720	203	9,87E-02	9,34E-02
725	204	1,13E-01	1,20E-01
730	204	1,13E-01	1,20E-01
735	205	1,44E-01	1,37E-01
730	205	1,44E-01	1,37E-01
735	206	1,67E-01	1,64E-01
740	206	1,67E-01	1,64E-01
745	207	1,48E-01	1,65E-01
740	207	1,48E-01	1,65E-01
745	208	1,47E-01	1,39E-01
750	208	1,47E-01	1,39E-01
755	209	1,60E-01	1,58E-01
750	209	1,60E-01	1,58E-01
760	210	1,77E-01	1,76E-01
755	210	1,77E-01	1,76E-01
765	211	1,92E-01	1,99E-01
760	211	1,92E-01	1,99E-01
765	212	2,25E-01	2,17E-01
770	212	2,25E-01	2,17E-01
770	213	2,50E-01	2,44E-01
775	213	2,50E-01	2,44E-01
775	214	2,23E-01	2,49E-01
780	214	2,23E-01	2,49E-01
785	215	2,26E-01	2,15E-01
780	215	2,26E-01	2,15E-01
790	216	2,37E-01	2,33E-01
785	216	2,37E-01	2,33E-01
795	217	2,51E-01	2,50E-01
790	217	2,51E-01	2,50E-01
795	218	2,66E-01	2,74E-01
800	218	2,66E-01	2,74E-01
805	219	3,02E-01	2,92E-01
800	219	3,02E-01	2,92E-01
805	220	3,29E-01	3,20E-01
810	220	3,29E-01	3,20E-01
810	221	2,97E-01	3,31E-01
815	221	2,97E-01	3,31E-01
820	222	3,03E-01	2,93E-01
815	222	3,03E-01	2,93E-01
825	223	3,19E-01	3,03E-01
820	223	3,19E-01	3,03E-01
825	224	3,17E-01	3,38E-01
830	224	3,17E-01	3,38E-01
835	225	3,64E-01	3,46E-01
830	225	3,64E-01	3,46E-01
840	226	3,90E-01	3,81E-01
835	226	3,90E-01	3,81E-01
839	227	3,30E-01	3,67E-01
840	227	3,30E-01	3,67E-01
2724	227	3,30E-01	3,67E-01
2725	227	3,30E-01	3,67E-01
2723	228	2,72E-01	3,10E-01
2724	228	2,72E-01	3,10E-01
838	228	2,72E-01	3,10E-01
839	228	2,72E-01	3,10E-01
838	229	2,03E-01	2,23E-01
2723	229	2,03E-01	2,23E-01
837	229	2,03E-01	2,23E-01
2722	229	2,03E-01	2,23E-01
2721	230	1,23E-01	1,28E-01
2722	230	1,23E-01	1,28E-01
837	230	1,23E-01	1,28E-01
836	230	1,23E-01	1,28E-01
836	231	9,71E-02	9,35E-02
2027	231	9,71E-02	9,35E-02
831	231	9,71E-02	9,35E-02
2022	231	9,71E-02	9,35E-02
2022	232	9,84E-02	1,01E-01
826	232	9,84E-02	1,01E-01
831	232	9,84E-02	1,01E-01
2017	232	9,84E-02	1,01E-01
821	233	9,67E-02	1,01E-01
2017	233	9,67E-02	1,01E-01
826	233	9,67E-02	1,01E-01
2012	233	9,67E-02	1,01E-01
2007	234	9,95E-02	9,46E-02
816	234	9,95E-02	9,46E-02
821	234	9,95E-02	9,46E-02
2012	234	9,95E-02	9,46E-02
811	235	9,62E-02	9,58E-02
2007	235	9,62E-02	9,58E-02
816	235	9,62E-02	9,58E-02
2002	235	9,62E-02	9,58E-02
1997	236	9,04E-02	9,25E-02
806	236	9,04E-02	9,25E-02
811	236	9,04E-02	9,25E-02
2002	236	9,04E-02	9,25E-02
801	237	9,24E-02	8,97E-02
1992	237	9,24E-02	8,97E-02
806	237	9,24E-02	8,97E-02
1997	237	9,24E-02	8,97E-02
1987	238	9,34E-02	9,64E-02
801	238	9,34E-02	9,64E-02
796	238	9,34E-02	9,64E-02
1992	238	9,34E-02	9,64E-02
1982	239	9,13E-02	9,53E-02
791	239	9,13E-02	9,53E-02
1987	239	9,13E-02	9,53E-02
796	239	9,13E-02	9,53E-02
1977	240	9,42E-02	9,18E-02
786	240	9,42E-02	9,18E-02
1982	240	9,42E-02	9,18E-02
791	240	9,42E-02	9,18E-02
1977	241	9,28E-02	8,87E-02
781	241	9,28E-02	8,87E-02
786	241	9,28E-02	8,87E-02
1972	241	9,28E-02	8,87E-02
776	242	9,03E-02	8,91E-02
781	242	9,03E-02	8,91E-02
1972	242	9,03E-02	8,91E-02
1967	242	9,03E-02	8,91E-02
1967	243	8,69E-02	8,72E-02
776	243	8,69E-02	8,72E-02
771	243	8,69E-02	8,72E-02
1962	243	8,69E-02	8,72E-02
771	244	8,77E-02	8,54E-02
1962	244	8,77E-02	8,54E-02
1957	244	8,77E-02	8,54E-02
766	244	8,77E-02	8,54E-02
1957	245	8,81E-02	9,04E-02
1952	245	8,81E-02	9,04E-02
761	245	8,81E-02	9,04E-02
766	245	8,81E-02	9,04E-02
756	246	8,64E-02	8,91E-02
1947	246	8,64E-02	8,91E-02
761	246	8,64E-02	8,91E-02
1952	246	8,64E-02	8,91E-02
1942	247	8,86E-02	8,64E-02
756	247	8,86E-02	8,64E-02
751	247	8,86E-02	8,64E-02
1947	247	8,86E-02	8,64E-02
751	248	8,77E-02	8,46E-02
1942	248	8,77E-02	8,46E-02
1937	248	8,77E-02	8,46E-02
746	248	8,77E-02	8,46E-02
1932	249	8,60E-02	8,50E-02
746	249	8,60E-02	8,50E-02
1937	249	8,60E-02	8,50E-02
741	249	8,60E-02	8,50E-02
741	250	8,36E-02	8,31E-02
1932	250	8,36E-02	8,31E-02
736	250	8,36E-02	8,31E-02
1927	250	8,36E-02	8,31E-02
1927	251	8,36E-02	8,17E-02
736	251	8,36E-02	8,17E-02
1922	251	8,36E-02	8,17E-02
731	251	8,36E-02	8,17E-02
1917	252	8,39E-02	8,48E-02
1922	252	8,39E-02	8,48E-02
731	252	8,39E-02	8,48E-02
726	252	8,39E-02	8,48E-02
726	253	8,31E-02	8,38E-02
1912	253	8,31E-02	8,38E-02
721	253	8,31E-02	8,38E-02
1917	253	8,31E-02	8,38E-02
721	254	8,43E-02	8,21E-02
1907	254	8,43E-02	8,21E-02
1912	254	8,43E-02	8,21E-02
716	254	8,43E-02	8,21E-02
1907	255	8,32E-02	8,26E-02
1902	255	8,32E-02	8,26E-02
711	255	8,32E-02	8,26E-02
716	255	8,32E-02	8,26E-02
1902	256	8,17E-02	8,12E-02
706	256	8,17E-02	8,12E-02
711	256	8,17E-02	8,12E-02
1897	256	8,17E-02	8,12E-02
706	257	8,25E-02	8,10E-02
1892	257	8,25E-02	8,10E-02
1897	257	8,25E-02	8,10E-02
701	257	8,25E-02	8,10E-02
701	258	8,25E-02	8,31E-02
1887	258	8,25E-02	8,31E-02
696	258	8,25E-02	8,31E-02
1892	258	8,25E-02	8,31E-02
1882	259	8,18E-02	8,20E-02
1887	259	8,18E-02	8,20E-02
696	259	8,18E-02	8,20E-02
691	259	8,18E-02	8,20E-02
1877	260	8,23E-02	8,13E-02
1882	260	8,23E-02	8,13E-02
686	260	8,23E-02	8,13E-02
691	260	8,23E-02	8,13E-02
686	261	8,24E-02	8,15E-02
1872	261	8,24E-02	8,15E-02
681	261	8,24E-02	8,15E-02
1877	261	8,24E-02	8,15E-02
676	262	8,20E-02	8,09E-02
1872	262	8,20E-02	8,09E-02
681	262	8,20E-02	8,09E-02
1867	262	8,20E-02	8,09E-02
676	263	6,62E-02	6,58E-02
671	263	6,62E-02	6,58E-02
1867	263	6,62E-02	6,58E-02
1862	263	6,62E-02	6,58E-02
1648	314	3,47E-01	3,60E-01
1653	314	3,47E-01	3,60E-01
1653	315	3,71E-01	3,73E-01
1658	315	3,71E-01	3,73E-01
1663	316	4,15E-01	3,84E-01
1658	316	4,15E-01	3,84E-01
1663	317	4,27E-01	4,27E-01
1668	317	4,27E-01	4,27E-01
1646	358	3,18E-15	5,87E-15
1647	358	3,18E-15	5,87E-15
1646	359	6,46E-15	7,90E-15
1645	359	6,46E-15	7,90E-15
1644	360	1,09E-14	1,04E-14
1645	360	1,09E-14	1,04E-14
1643	361	1,07E-14	1,05E-14
1644	361	1,07E-14	1,05E-14
2023	362	3,30E-01	3,67E-01
1649	362	3,30E-01	3,67E-01
2024	362	3,30E-01	3,67E-01
1648	362	3,30E-01	3,67E-01
1650	363	2,72E-01	3,10E-01
2025	363	2,72E-01	3,10E-01
1649	363	2,72E-01	3,10E-01
2024	363	2,72E-01	3,10E-01
2026	364	2,03E-01	2,23E-01
1650	364	2,03E-01	2,23E-01
1651	364	2,03E-01	2,23E-01
2025	364	2,03E-01	2,23E-01
2027	365	1,23E-01	1,28E-01
1651	365	1,23E-01	1,28E-01
1652	365	1,23E-01	1,28E-01
2026	365	1,23E-01	1,28E-01
2726	366	8,80E-02	9,19E-02
1652	366	8,80E-02	9,19E-02
1657	366	8,80E-02	9,19E-02
2721	366	8,80E-02	9,19E-02
2731	367	9,93E-02	1,05E-01
1662	367	9,93E-02	1,05E-01
2726	367	9,93E-02	1,05E-01
1657	367	9,93E-02	1,05E-01
1667	368	1,05E-01	1,03E-01
1662	368	1,05E-01	1,03E-01
2736	368	1,05E-01	1,03E-01
2731	368	1,05E-01	1,03E-01
2741	369	1,03E-01	9,89E-02
1672	369	1,03E-01	9,89E-02
2736	369	1,03E-01	9,89E-02
1667	369	1,03E-01	9,89E-02
2148	370	1,66E-01	1,73E-01
1672	370	1,66E-01	1,73E-01
1671	370	1,66E-01	1,73E-01
2149	370	1,66E-01	1,73E-01
2147	371	2,40E-01	2,64E-01
1671	371	2,40E-01	2,64E-01
2148	371	2,40E-01	2,64E-01
1670	371	2,40E-01	2,64E-01
1670	372	3,06E-01	3,50E-01
2146	372	3,06E-01	3,50E-01
2147	372	3,06E-01	3,50E-01
1669	372	3,06E-01	3,50E-01
2145	373	3,70E-01	4,18E-01
1668	373	3,70E-01	4,18E-01
1669	373	3,70E-01	4,18E-01
2146	373	3,70E-01	4,18E-01
2740	389	4,27E-01	4,27E-01
2745	389	4,27E-01	4,27E-01
2735	390	4,15E-01	3,84E-01
2740	390	4,15E-01	3,84E-01
2735	391	3,71E-01	3,73E-01
2730	391	3,71E-01	3,73E-01
2725	392	3,47E-01	3,60E-01
2730	392	3,47E-01	3,60E-01
2145	393	3,71E-01	3,77E-01
2150	393	3,71E-01	3,77E-01
2155	394	3,53E-01	3,71E-01
2150	394	3,53E-01	3,71E-01
2160	395	3,59E-01	3,54E-01
2155	395	3,59E-01	3,54E-01
2165	396	3,02E-01	2,72E-01
2160	396	3,02E-01	2,72E-01
2741	416	1,66E-01	1,73E-01
2742	416	1,66E-01	1,73E-01
1834	416	1,66E-01	1,73E-01
1833	416	1,66E-01	1,73E-01
1834	417	2,40E-01	2,64E-01
1835	417	2,40E-01	2,64E-01
2743	417	2,40E-01	2,64E-01
2742	417	2,40E-01	2,64E-01
2744	418	3,06E-01	3,50E-01
2743	418	3,06E-01	3,50E-01
1836	418	3,06E-01	3,50E-01
1835	418	3,06E-01	3,50E-01
1837	419	3,70E-01	4,18E-01
1836	419	3,70E-01	4,18E-01
2744	419	3,70E-01	4,18E-01
2745	419	3,70E-01	4,18E-01
1837	420	3,71E-01	3,77E-01
1842	420	3,71E-01	3,77E-01
1842	421	3,53E-01	3,71E-01
1847	421	3,53E-01	3,71E-01
1852	422	3,59E-01	3,54E-01
1847	422	3,59E-01	3,54E-01
1852	423	3,02E-01	2,72E-01
1857	423	3,02E-01	2,72E-01
1856	424	2,46E-01	2,92E-01
1857	424	2,46E-01	2,92E-01
2174	424	2,46E-01	2,92E-01
2173	424	2,46E-01	2,92E-01
2172	425	2,26E-01	2,70E-01
2173	425	2,26E-01	2,70E-01
1855	425	2,26E-01	2,70E-01
1856	425	2,26E-01	2,70E-01
2171	426	2,13E-01	2,34E-01
1854	426	2,13E-01	2,34E-01
2172	426	2,13E-01	2,34E-01
1855	426	2,13E-01	2,34E-01
1854	427	1,98E-01	2,05E-01
2171	427	1,98E-01	2,05E-01
1853	427	1,98E-01	2,05E-01
2170	427	1,98E-01	2,05E-01
2164	428	1,99E-01	2,00E-01
1848	428	1,99E-01	2,00E-01
1853	428	1,99E-01	2,00E-01
2169	428	1,99E-01	2,00E-01
2164	429	2,01E-01	1,93E-01
2159	429	2,01E-01	1,93E-01
1848	429	2,01E-01	1,93E-01
1843	429	2,01E-01	1,93E-01
1843	430	2,13E-01	2,08E-01
1838	430	2,13E-01	2,08E-01
2159	430	2,13E-01	2,08E-01
2154	430	2,13E-01	2,08E-01
2149	431	1,98E-01	1,96E-01
2154	431	1,98E-01	1,96E-01
1833	431	1,98E-01	1,96E-01
1838	431	1,98E-01	1,96E-01
2168	440	1,98E-01	2,05E-01
2767	440	1,98E-01	2,05E-01
2169	440	1,98E-01	2,05E-01
2768	440	1,98E-01	2,05E-01
2168	441	2,13E-01	2,34E-01
2767	441	2,13E-01	2,34E-01
2167	441	2,13E-01	2,34E-01
2766	441	2,13E-01	2,34E-01
2765	442	2,26E-01	2,70E-01
2167	442	2,26E-01	2,70E-01
2166	442	2,26E-01	2,70E-01
2766	442	2,26E-01	2,70E-01
2166	443	2,46E-01	2,92E-01
2165	443	2,46E-01	2,92E-01
2764	443	2,46E-01	2,92E-01
2765	443	2,46E-01	2,92E-01
2174	444	2,73E-01	2,73E-01
2179	444	2,73E-01	2,73E-01
2179	445	2,23E-01	1,94E-01
2184	445	2,23E-01	1,94E-01
2189	446	2,09E-01	2,38E-01
2184	446	2,09E-01	2,38E-01
2194	447	2,46E-01	2,45E-01
2189	447	2,46E-01	2,45E-01
2194	448	1,96E-01	1,86E-01
2199	448	1,96E-01	1,86E-01
2204	449	1,32E-01	1,44E-01
2199	449	1,32E-01	1,44E-01
2204	450	9,52E-02	8,63E-02
2209	450	9,52E-02	8,63E-02
2214	451	4,26E-02	4,60E-02
2209	451	4,26E-02	4,60E-02
2219	452	2,54E-02	4,07E-02
2214	452	2,54E-02	4,07E-02
2224	453	3,95E-02	4,86E-02
2219	453	3,95E-02	4,86E-02
3190	454	2,85E-02	2,88E-02
2224	454	2,85E-02	2,88E-02
3191	454	2,85E-02	2,88E-02
2223	454	2,85E-02	2,88E-02
2222	455	4,19E-02	4,22E-02
3190	455	4,19E-02	4,22E-02
2223	455	4,19E-02	4,22E-02
3189	455	4,19E-02	4,22E-02
2222	456	5,27E-02	5,29E-02
2221	456	5,27E-02	5,29E-02
3188	456	5,27E-02	5,29E-02
3189	456	5,27E-02	5,29E-02
3188	457	5,96E-02	5,98E-02
2221	457	5,96E-02	5,98E-02
3187	457	5,96E-02	5,98E-02
2220	457	5,96E-02	5,98E-02
2818	458	1,61E-01	1,60E-01
2813	458	1,61E-01	1,60E-01
2215	458	1,61E-01	1,60E-01
2220	458	1,61E-01	1,60E-01
2210	459	2,00E-01	1,97E-01
2813	459	2,00E-01	1,97E-01
2808	459	2,00E-01	1,97E-01
2215	459	2,00E-01	1,97E-01
2803	460	2,01E-01	1,98E-01
2205	460	2,01E-01	1,98E-01
2210	460	2,01E-01	1,98E-01
2808	460	2,01E-01	1,98E-01
2200	461	2,01E-01	1,98E-01
2205	461	2,01E-01	1,98E-01
2798	461	2,01E-01	1,98E-01
2803	461	2,01E-01	1,98E-01
2793	462	1,99E-01	2,00E-01
2798	462	1,99E-01	2,00E-01
2195	462	1,99E-01	2,00E-01
2200	462	1,99E-01	2,00E-01
2788	463	2,01E-01	2,02E-01
2195	463	2,01E-01	2,02E-01
2190	463	2,01E-01	2,02E-01
2793	463	2,01E-01	2,02E-01
2783	464	2,01E-01	1,97E-01
2190	464	2,01E-01	1,97E-01
2788	464	2,01E-01	1,97E-01
2185	464	2,01E-01	1,97E-01
2778	465	1,94E-01	1,95E-01
2783	465	1,94E-01	1,95E-01
2180	465	1,94E-01	1,95E-01
2185	465	1,94E-01	1,95E-01
2180	466	1,95E-01	1,96E-01
2175	466	1,95E-01	1,96E-01
2778	466	1,95E-01	1,96E-01
2773	466	1,95E-01	1,96E-01
2773	467	1,97E-01	1,90E-01
2175	467	1,97E-01	1,90E-01
2768	467	1,97E-01	1,90E-01
2170	467	1,97E-01	1,90E-01
2769	470	2,73E-01	2,73E-01
2764	470	2,73E-01	2,73E-01
2769	471	2,23E-01	1,94E-01
2774	471	2,23E-01	1,94E-01
2774	472	2,09E-01	2,38E-01
2779	472	2,09E-01	2,38E-01
2779	473	2,46E-01	2,45E-01
2784	473	2,46E-01	2,45E-01
2789	474	1,96E-01	1,86E-01
2784	474	1,96E-01	1,86E-01
2789	475	1,32E-01	1,44E-01
2794	475	1,32E-01	1,44E-01
2799	476	9,52E-02	8,63E-02
2794	476	9,52E-02	8,63E-02
2799	477	4,26E-02	4,60E-02
2804	477	4,26E-02	4,60E-02
2809	478	2,54E-02	4,07E-02
2804	478	2,54E-02	4,07E-02
2809	479	3,95E-02	4,86E-02
2814	479	3,95E-02	4,86E-02
2857	562	9,55E-15	8,90E-15
2852	562	9,55E-15	8,90E-15
2857	563	8,74E-15	7,89E-15
2862	563	8,74E-15	7,89E-15
2867	564	1,01E-14	1,13E-14
2862	564	1,01E-14	1,13E-14
2872	565	9,08E-15	9,82E-15
2867	565	9,08E-15	9,82E-15
2872	566	5,93E-15	5,41E-15
2877	566	5,93E-15	5,41E-15
3211	596	1,46E-14	1,46E-14
3216	596	1,46E-14	1,46E-14
3206	597	1,41E-14	1,49E-14
3211	597	1,41E-14	1,49E-14
3206	598	1,02E-14	1,03E-14
3201	598	1,02E-14	1,03E-14
3196	599	1,06E-14	1,01E-14
3201	599	1,06E-14	1,01E-14
3196	600	1,84E-14	1,77E-14
3191	600	1,84E-14	1,77E-14
2817	601	5,96E-02	5,98E-02
2856	601	5,96E-02	5,98E-02
2855	601	5,96E-02	5,98E-02
2818	601	5,96E-02	5,98E-02
2854	602	5,27E-02	5,29E-02
2816	602	5,27E-02	5,29E-02
2817	602	5,27E-02	5,29E-02
2855	602	5,27E-02	5,29E-02
2853	603	4,19E-02	4,22E-02
2816	603	4,19E-02	4,22E-02
2854	603	4,19E-02	4,22E-02
2815	603	4,19E-02	4,22E-02
2852	604	2,85E-02	2,88E-02
2815	604	2,85E-02	2,88E-02
2814	604	2,85E-02	2,88E-02
2853	604	2,85E-02	2,88E-02
3192	607	7,83E-15	8,44E-15
2861	607	7,83E-15	8,44E-15
3187	607	7,83E-15	8,44E-15
2856	607	7,83E-15	8,44E-15
2866	608	9,21E-15	9,83E-15
3197	608	9,21E-15	9,83E-15
3192	608	9,21E-15	9,83E-15
2861	608	9,21E-15	9,83E-15
3202	609	8,18E-15	7,58E-15
2871	609	8,18E-15	7,58E-15
2866	609	8,18E-15	7,58E-15
3197	609	8,18E-15	7,58E-15
2871	610	5,41E-15	5,15E-15
3202	610	5,41E-15	5,15E-15
3207	610	5,41E-15	5,15E-15
2876	610	5,41E-15	5,15E-15
2876	611	7,10E-15	7,78E-15
3212	611	7,10E-15	7,78E-15
3207	611	7,10E-15	7,78E-15
2881	611	7,10E-15	7,78E-15
2880	612	1,28E-14	1,43E-14
2881	612	1,28E-14	1,43E-14
2880	613	1,62E-14	1,62E-14
2879	613	1,62E-14	1,62E-14
2879	614	1,35E-14	1,24E-14
2878	614	1,35E-14	1,24E-14
2877	615	8,31E-15	7,50E-15
2878	615	8,31E-15	7,50E-15
3216	631	1,45E-14	1,46E-14
3215	631	1,45E-14	1,46E-14
3215	632	7,38E-15	6,70E-15
3214	632	7,38E-15	6,70E-15
3213	633	1,00E-14	7,74E-15
3214	633	1,00E-14	7,74E-15
3213	634	1,18E-14	1,11E-14
3212	634	1,18E-14	1,11E-14
647	1205	5,27E-15	5,29E-15
641	1205	5,27E-15	5,29E-15
642	1205	5,27E-15	5,29E-15
646	1205	5,27E-15	5,29E-15
648	1206	4,73E-15	4,15E-15
647	1206	4,73E-15	4,15E-15
643	1206	4,73E-15	4,15E-15
642	1206	4,73E-15	4,15E-15
649	1207	5,10E-15	5,48E-15
648	1207	5,10E-15	5,48E-15
643	1207	5,10E-15	5,48E-15
644	1207	5,10E-15	5,48E-15
645	1208	8,46E-15	9,29E-15
650	1208	8,46E-15	9,29E-15
644	1208	8,46E-15	9,29E-15
649	1208	8,46E-15	9,29E-15
646	1209	4,48E-15	5,71E-15
651	1209	4,48E-15	5,71E-15
647	1209	4,48E-15	5,71E-15
652	1209	4,48E-15	5,71E-15
648	1210	7,00E-15	6,18E-15
652	1210	7,00E-15	6,18E-15
653	1210	7,00E-15	6,18E-15
647	1210	7,00E-15	6,18E-15
654	1211	6,54E-15	6,31E-15
648	1211	6,54E-15	6,31E-15
649	1211	6,54E-15	6,31E-15
653	1211	6,54E-15	6,31E-15
649	1212	1,05E-14	1,10E-14
654	1212	1,05E-14	1,10E-14
650	1212	1,05E-14	1,10E-14
655	1212	1,05E-14	1,10E-14
657	1213	5,51E-15	5,60E-15
656	1213	5,51E-15	5,60E-15
652	1213	5,51E-15	5,60E-15
651	1213	5,51E-15	5,60E-15
657	1214	6,57E-15	5,90E-15
658	1214	6,57E-15	5,90E-15
653	1214	6,57E-15	5,90E-15
652	1214	6,57E-15	5,90E-15
653	1215	7,33E-15	7,02E-15
659	1215	7,33E-15	7,02E-15
658	1215	7,33E-15	7,02E-15
654	1215	7,33E-15	7,02E-15
659	1216	1,11E-14	1,14E-14
654	1216	1,11E-14	1,14E-14
660	1216	1,11E-14	1,14E-14
655	1216	1,11E-14	1,14E-14
661	1217	5,19E-15	4,66E-15
662	1217	5,19E-15	4,66E-15
657	1217	5,19E-15	4,66E-15
656	1217	5,19E-15	4,66E-15
657	1218	6,34E-15	7,11E-15
658	1218	6,34E-15	7,11E-15
663	1218	6,34E-15	7,11E-15
662	1218	6,34E-15	7,11E-15
658	1219	7,38E-15	8,00E-15
663	1219	7,38E-15	8,00E-15
664	1219	7,38E-15	8,00E-15
659	1219	7,38E-15	8,00E-15
665	1220	7,61E-15	8,44E-15
660	1220	7,61E-15	8,44E-15
664	1220	7,61E-15	8,44E-15
659	1220	7,61E-15	8,44E-15
661	1221	6,29E-15	6,77E-15
667	1221	6,29E-15	6,77E-15
666	1221	6,29E-15	6,77E-15
662	1221	6,29E-15	6,77E-15
662	1222	8,99E-15	9,88E-15
667	1222	8,99E-15	9,88E-15
663	1222	8,99E-15	9,88E-15
668	1222	8,99E-15	9,88E-15
669	1223	9,86E-15	1,07E-14
663	1223	9,86E-15	1,07E-14
664	1223	9,86E-15	1,07E-14
668	1223	9,86E-15	1,07E-14
664	1224	8,30E-15	9,32E-15
670	1224	8,30E-15	9,32E-15
665	1224	8,30E-15	9,32E-15
669	1224	8,30E-15	9,32E-15
672	1225	6,30E-02	6,26E-02
677	1225	6,30E-02	6,26E-02
671	1225	6,30E-02	6,26E-02
676	1225	6,30E-02	6,26E-02
673	1226	5,35E-02	5,35E-02
672	1226	5,35E-02	5,35E-02
677	1226	5,35E-02	5,35E-02
678	1226	5,35E-02	5,35E-02
678	1227	4,05E-02	4,08E-02
673	1227	4,05E-02	4,08E-02
679	1227	4,05E-02	4,08E-02
674	1227	4,05E-02	4,08E-02
679	1228	2,50E-02	2,69E-02
675	1228	2,50E-02	2,69E-02
674	1228	2,50E-02	2,69E-02
680	1228	2,50E-02	2,69E-02
676	1229	7,75E-02	7,66E-02
677	1229	7,75E-02	7,66E-02
681	1229	7,75E-02	7,66E-02
682	1229	7,75E-02	7,66E-02
682	1230	6,39E-02	6,49E-02
677	1230	6,39E-02	6,49E-02
683	1230	6,39E-02	6,49E-02
678	1230	6,39E-02	6,49E-02
683	1231	4,65E-02	4,82E-02
684	1231	4,65E-02	4,82E-02
678	1231	4,65E-02	4,82E-02
679	1231	4,65E-02	4,82E-02
680	1232	2,45E-02	2,79E-02
685	1232	2,45E-02	2,79E-02
679	1232	2,45E-02	2,79E-02
684	1232	2,45E-02	2,79E-02
681	1233	7,79E-02	7,76E-02
687	1233	7,79E-02	7,76E-02
686	1233	7,79E-02	7,76E-02
682	1233	7,79E-02	7,76E-02
682	1234	6,61E-02	6,74E-02
688	1234	6,61E-02	6,74E-02
683	1234	6,61E-02	6,74E-02
687	1234	6,61E-02	6,74E-02
688	1235	4,92E-02	5,06E-02
683	1235	4,92E-02	5,06E-02
684	1235	4,92E-02	5,06E-02
689	1235	4,92E-02	5,06E-02
690	1236	2,89E-02	2,99E-02
684	1236	2,89E-02	2,99E-02
689	1236	2,89E-02	2,99E-02
685	1236	2,89E-02	2,99E-02
686	1237	7,87E-02	7,85E-02
687	1237	7,87E-02	7,85E-02
691	1237	7,87E-02	7,85E-02
692	1237	7,87E-02	7,85E-02
688	1238	6,97E-02	6,94E-02
687	1238	6,97E-02	6,94E-02
692	1238	6,97E-02	6,94E-02
693	1238	6,97E-02	6,94E-02
688	1239	5,61E-02	5,41E-02
693	1239	5,61E-02	5,41E-02
689	1239	5,61E-02	5,41E-02
694	1239	5,61E-02	5,41E-02
689	1240	4,40E-02	4,08E-02
695	1240	4,40E-02	4,08E-02
690	1240	4,40E-02	4,08E-02
694	1240	4,40E-02	4,08E-02
696	1241	7,93E-02	8,02E-02
692	1241	7,93E-02	8,02E-02
697	1241	7,93E-02	8,02E-02
691	1241	7,93E-02	8,02E-02
692	1242	7,22E-02	7,46E-02
697	1242	7,22E-02	7,46E-02
693	1242	7,22E-02	7,46E-02
698	1242	7,22E-02	7,46E-02
694	1243	6,16E-02	6,67E-02
698	1243	6,16E-02	6,67E-02
699	1243	6,16E-02	6,67E-02
693	1243	6,16E-02	6,67E-02
694	1244	5,54E-02	6,15E-02
699	1244	5,54E-02	6,15E-02
695	1244	5,54E-02	6,15E-02
700	1244	5,54E-02	6,15E-02
696	1245	8,27E-02	8,17E-02
697	1245	8,27E-02	8,17E-02
702	1245	8,27E-02	8,17E-02
701	1245	8,27E-02	8,17E-02
698	1246	8,14E-02	7,75E-02
697	1246	8,14E-02	7,75E-02
702	1246	8,14E-02	7,75E-02
703	1246	8,14E-02	7,75E-02
698	1247	7,91E-02	7,48E-02
703	1247	7,91E-02	7,48E-02
704	1247	7,91E-02	7,48E-02
699	1247	7,91E-02	7,48E-02
705	1248	8,01E-02	7,64E-02
699	1248	8,01E-02	7,64E-02
700	1248	8,01E-02	7,64E-02
704	1248	8,01E-02	7,64E-02
702	1249	8,36E-02	8,13E-02
701	1249	8,36E-02	8,13E-02
706	1249	8,36E-02	8,13E-02
707	1249	8,36E-02	8,13E-02
708	1250	8,45E-02	8,16E-02
703	1250	8,45E-02	8,16E-02
707	1250	8,45E-02	8,16E-02
702	1250	8,45E-02	8,16E-02
703	1251	8,58E-02	8,48E-02
708	1251	8,58E-02	8,48E-02
709	1251	8,58E-02	8,48E-02
704	1251	8,58E-02	8,48E-02
704	1252	9,51E-02	9,52E-02
709	1252	9,51E-02	9,52E-02
710	1252	9,51E-02	9,52E-02
705	1252	9,51E-02	9,52E-02
711	1253	8,10E-02	8,15E-02
707	1253	8,10E-02	8,15E-02
712	1253	8,10E-02	8,15E-02
706	1253	8,10E-02	8,15E-02
712	1254	7,87E-02	8,46E-02
707	1254	7,87E-02	8,46E-02
708	1254	7,87E-02	8,46E-02
713	1254	7,87E-02	8,46E-02
714	1255	7,82E-02	9,19E-02
713	1255	7,82E-02	9,19E-02
709	1255	7,82E-02	9,19E-02
708	1255	7,82E-02	9,19E-02
709	1256	8,29E-02	9,62E-02
715	1256	8,29E-02	9,62E-02
710	1256	8,29E-02	9,62E-02
714	1256	8,29E-02	9,62E-02
717	1257	8,29E-02	8,25E-02
716	1257	8,29E-02	8,25E-02
711	1257	8,29E-02	8,25E-02
712	1257	8,29E-02	8,25E-02
712	1258	8,41E-02	8,44E-02
718	1258	8,41E-02	8,44E-02
717	1258	8,41E-02	8,44E-02
713	1258	8,41E-02	8,44E-02
718	1259	8,80E-02	8,91E-02
713	1259	8,80E-02	8,91E-02
719	1259	8,80E-02	8,91E-02
714	1259	8,80E-02	8,91E-02
715	1260	8,52E-02	8,40E-02
720	1260	8,52E-02	8,40E-02
719	1260	8,52E-02	8,40E-02
714	1260	8,52E-02	8,40E-02
717	1261	8,57E-02	8,44E-02
716	1261	8,57E-02	8,44E-02
722	1261	8,57E-02	8,44E-02
721	1261	8,57E-02	8,44E-02
723	1262	9,11E-02	8,98E-02
717	1262	9,11E-02	8,98E-02
722	1262	9,11E-02	8,98E-02
718	1262	9,11E-02	8,98E-02
718	1263	9,65E-02	9,45E-02
724	1263	9,65E-02	9,45E-02
723	1263	9,65E-02	9,45E-02
719	1263	9,65E-02	9,45E-02
720	1264	9,83E-02	9,49E-02
725	1264	9,83E-02	9,49E-02
724	1264	9,83E-02	9,49E-02
719	1264	9,83E-02	9,49E-02
721	1265	8,65E-02	8,86E-02
722	1265	8,65E-02	8,86E-02
726	1265	8,65E-02	8,86E-02
727	1265	8,65E-02	8,86E-02
722	1266	9,37E-02	9,92E-02
727	1266	9,37E-02	9,92E-02
723	1266	9,37E-02	9,92E-02
728	1266	9,37E-02	9,92E-02
723	1267	9,89E-02	1,10E-01
724	1267	9,89E-02	1,10E-01
728	1267	9,89E-02	1,10E-01
729	1267	9,89E-02	1,10E-01
725	1268	1,06E-01	1,17E-01
724	1268	1,06E-01	1,17E-01
730	1268	1,06E-01	1,17E-01
729	1268	1,06E-01	1,17E-01
727	1269	9,21E-02	9,08E-02
726	1269	9,21E-02	9,08E-02
731	1269	9,21E-02	9,08E-02
732	1269	9,21E-02	9,08E-02
732	1270	1,09E-01	1,02E-01
728	1270	1,09E-01	1,02E-01
727	1270	1,09E-01	1,02E-01
733	1270	1,09E-01	1,02E-01
728	1271	1,25E-01	1,17E-01
734	1271	1,25E-01	1,17E-01
733	1271	1,25E-01	1,17E-01
729	1271	1,25E-01	1,17E-01
729	1272	1,38E-01	1,32E-01
735	1272	1,38E-01	1,32E-01
734	1272	1,38E-01	1,32E-01
730	1272	1,38E-01	1,32E-01
732	1273	9,27E-02	8,97E-02
736	1273	9,27E-02	8,97E-02
731	1273	9,27E-02	8,97E-02
737	1273	9,27E-02	8,97E-02
737	1274	1,12E-01	1,07E-01
732	1274	1,12E-01	1,07E-01
738	1274	1,12E-01	1,07E-01
733	1274	1,12E-01	1,07E-01
734	1275	1,32E-01	1,29E-01
739	1275	1,32E-01	1,29E-01
733	1275	1,32E-01	1,29E-01
738	1275	1,32E-01	1,29E-01
734	1276	1,54E-01	1,53E-01
740	1276	1,54E-01	1,53E-01
735	1276	1,54E-01	1,53E-01
739	1276	1,54E-01	1,53E-01
737	1277	8,83E-02	9,06E-02
736	1277	8,83E-02	9,06E-02
741	1277	8,83E-02	9,06E-02
742	1277	8,83E-02	9,06E-02
743	1278	1,01E-01	1,13E-01
738	1278	1,01E-01	1,13E-01
737	1278	1,01E-01	1,13E-01
742	1278	1,01E-01	1,13E-01
738	1279	1,18E-01	1,43E-01
743	1279	1,18E-01	1,43E-01
744	1279	1,18E-01	1,43E-01
739	1279	1,18E-01	1,43E-01
739	1280	1,37E-01	1,61E-01
744	1280	1,37E-01	1,61E-01
740	1280	1,37E-01	1,61E-01
745	1280	1,37E-01	1,61E-01
742	1281	9,24E-02	9,16E-02
746	1281	9,24E-02	9,16E-02
741	1281	9,24E-02	9,16E-02
747	1281	9,24E-02	9,16E-02
742	1282	1,11E-01	1,11E-01
748	1282	1,11E-01	1,11E-01
747	1282	1,11E-01	1,11E-01
743	1282	1,11E-01	1,11E-01
749	1283	1,35E-01	1,36E-01
748	1283	1,35E-01	1,36E-01
744	1283	1,35E-01	1,36E-01
743	1283	1,35E-01	1,36E-01
749	1284	1,47E-01	1,43E-01
744	1284	1,47E-01	1,43E-01
750	1284	1,47E-01	1,43E-01
745	1284	1,47E-01	1,43E-01
752	1285	9,69E-02	9,56E-02
747	1285	9,69E-02	9,56E-02
746	1285	9,69E-02	9,56E-02
751	1285	9,69E-02	9,56E-02
748	1286	1,21E-01	1,20E-01
752	1286	1,21E-01	1,20E-01
753	1286	1,21E-01	1,20E-01
747	1286	1,21E-01	1,20E-01
754	1287	1,43E-01	1,44E-01
748	1287	1,43E-01	1,44E-01
753	1287	1,43E-01	1,44E-01
749	1287	1,43E-01	1,44E-01
755	1288	1,56E-01	1,57E-01
749	1288	1,56E-01	1,57E-01
750	1288	1,56E-01	1,57E-01
754	1288	1,56E-01	1,57E-01
751	1289	1,01E-01	9,97E-02
757	1289	1,01E-01	9,97E-02
752	1289	1,01E-01	9,97E-02
756	1289	1,01E-01	9,97E-02
753	1290	1,26E-01	1,26E-01
758	1290	1,26E-01	1,26E-01
752	1290	1,26E-01	1,26E-01
757	1290	1,26E-01	1,26E-01
759	1291	1,48E-01	1,51E-01
754	1291	1,48E-01	1,51E-01
753	1291	1,48E-01	1,51E-01
758	1291	1,48E-01	1,51E-01
754	1292	1,67E-01	1,69E-01
755	1292	1,67E-01	1,69E-01
760	1292	1,67E-01	1,69E-01
759	1292	1,67E-01	1,69E-01
756	1293	1,02E-01	1,05E-01
762	1293	1,02E-01	1,05E-01
757	1293	1,02E-01	1,05E-01
761	1293	1,02E-01	1,05E-01
758	1294	1,31E-01	1,36E-01
762	1294	1,31E-01	1,36E-01
763	1294	1,31E-01	1,36E-01
757	1294	1,31E-01	1,36E-01
758	1295	1,56E-01	1,68E-01
759	1295	1,56E-01	1,68E-01
763	1295	1,56E-01	1,68E-01
764	1295	1,56E-01	1,68E-01
760	1296	1,79E-01	1,92E-01
764	1296	1,79E-01	1,92E-01
765	1296	1,79E-01	1,92E-01
759	1296	1,79E-01	1,92E-01
766	1297	1,09E-01	1,07E-01
762	1297	1,09E-01	1,07E-01
767	1297	1,09E-01	1,07E-01
761	1297	1,09E-01	1,07E-01
768	1298	1,51E-01	1,41E-01
763	1298	1,51E-01	1,41E-01
767	1298	1,51E-01	1,41E-01
762	1298	1,51E-01	1,41E-01
769	1299	1,87E-01	1,79E-01
768	1299	1,87E-01	1,79E-01
763	1299	1,87E-01	1,79E-01
764	1299	1,87E-01	1,79E-01
769	1300	2,14E-01	2,08E-01
765	1300	2,14E-01	2,08E-01
764	1300	2,14E-01	2,08E-01
770	1300	2,14E-01	2,08E-01
767	1301	1,09E-01	1,04E-01
772	1301	1,09E-01	1,04E-01
771	1301	1,09E-01	1,04E-01
766	1301	1,09E-01	1,04E-01
772	1302	1,53E-01	1,46E-01
767	1302	1,53E-01	1,46E-01
768	1302	1,53E-01	1,46E-01
773	1302	1,53E-01	1,46E-01
769	1303	1,95E-01	1,92E-01
773	1303	1,95E-01	1,92E-01
768	1303	1,95E-01	1,92E-01
774	1303	1,95E-01	1,92E-01
770	1304	2,32E-01	2,29E-01
775	1304	2,32E-01	2,29E-01
774	1304	2,32E-01	2,29E-01
769	1304	2,32E-01	2,29E-01
772	1305	1,01E-01	1,06E-01
777	1305	1,01E-01	1,06E-01
771	1305	1,01E-01	1,06E-01
776	1305	1,01E-01	1,06E-01
772	1306	1,34E-01	1,55E-01
778	1306	1,34E-01	1,55E-01
773	1306	1,34E-01	1,55E-01
777	1306	1,34E-01	1,55E-01
779	1307	1,72E-01	2,11E-01
774	1307	1,72E-01	2,11E-01
773	1307	1,72E-01	2,11E-01
778	1307	1,72E-01	2,11E-01
780	1308	2,06E-01	2,43E-01
779	1308	2,06E-01	2,43E-01
774	1308	2,06E-01	2,43E-01
775	1308	2,06E-01	2,43E-01
776	1309	1,08E-01	1,06E-01
781	1309	1,08E-01	1,06E-01
782	1309	1,08E-01	1,06E-01
777	1309	1,08E-01	1,06E-01
783	1310	1,50E-01	1,49E-01
782	1310	1,50E-01	1,49E-01
778	1310	1,50E-01	1,49E-01
777	1310	1,50E-01	1,49E-01
783	1311	1,96E-01	1,96E-01
779	1311	1,96E-01	1,96E-01
778	1311	1,96E-01	1,96E-01
784	1311	1,96E-01	1,96E-01
780	1312	2,21E-01	2,16E-01
779	1312	2,21E-01	2,16E-01
785	1312	2,21E-01	2,16E-01
784	1312	2,21E-01	2,16E-01
786	1313	1,14E-01	1,12E-01
782	1313	1,14E-01	1,12E-01
787	1313	1,14E-01	1,12E-01
781	1313	1,14E-01	1,12E-01
788	1314	1,62E-01	1,59E-01
783	1314	1,62E-01	1,59E-01
782	1314	1,62E-01	1,59E-01
787	1314	1,62E-01	1,59E-01
783	1315	2,04E-01	2,03E-01
789	1315	2,04E-01	2,03E-01
784	1315	2,04E-01	2,03E-01
788	1315	2,04E-01	2,03E-01
790	1316	2,28E-01	2,28E-01
789	1316	2,28E-01	2,28E-01
785	1316	2,28E-01	2,28E-01
784	1316	2,28E-01	2,28E-01
792	1317	1,18E-01	1,17E-01
786	1317	1,18E-01	1,17E-01
791	1317	1,18E-01	1,17E-01
787	1317	1,18E-01	1,17E-01
788	1318	1,65E-01	1,66E-01
787	1318	1,65E-01	1,66E-01
792	1318	1,65E-01	1,66E-01
793	1318	1,65E-01	1,66E-01
788	1319	2,04E-01	2,10E-01
794	1319	2,04E-01	2,10E-01
793	1319	2,04E-01	2,10E-01
789	1319	2,04E-01	2,10E-01
789	1320	2,35E-01	2,40E-01
794	1320	2,35E-01	2,40E-01
795	1320	2,35E-01	2,40E-01
790	1320	2,35E-01	2,40E-01
791	1321	1,19E-01	1,23E-01
797	1321	1,19E-01	1,23E-01
796	1321	1,19E-01	1,23E-01
792	1321	1,19E-01	1,23E-01
792	1322	1,70E-01	1,77E-01
797	1322	1,70E-01	1,77E-01
793	1322	1,70E-01	1,77E-01
798	1322	1,70E-01	1,77E-01
798	1323	2,12E-01	2,27E-01
799	1323	2,12E-01	2,27E-01
794	1323	2,12E-01	2,27E-01
793	1323	2,12E-01	2,27E-01
799	1324	2,48E-01	2,63E-01
795	1324	2,48E-01	2,63E-01
794	1324	2,48E-01	2,63E-01
800	1324	2,48E-01	2,63E-01
796	1325	1,28E-01	1,25E-01
801	1325	1,28E-01	1,25E-01
797	1325	1,28E-01	1,25E-01
802	1325	1,28E-01	1,25E-01
798	1326	1,94E-01	1,82E-01
797	1326	1,94E-01	1,82E-01
802	1326	1,94E-01	1,82E-01
803	1326	1,94E-01	1,82E-01
804	1327	2,49E-01	2,38E-01
799	1327	2,49E-01	2,38E-01
803	1327	2,49E-01	2,38E-01
798	1327	2,49E-01	2,38E-01
805	1328	2,86E-01	2,80E-01
804	1328	2,86E-01	2,80E-01
799	1328	2,86E-01	2,80E-01
800	1328	2,86E-01	2,80E-01
802	1329	1,26E-01	1,21E-01
801	1329	1,26E-01	1,21E-01
806	1329	1,26E-01	1,21E-01
807	1329	1,26E-01	1,21E-01
802	1330	1,95E-01	1,86E-01
803	1330	1,95E-01	1,86E-01
808	1330	1,95E-01	1,86E-01
807	1330	1,95E-01	1,86E-01
809	1331	2,57E-01	2,53E-01
808	1331	2,57E-01	2,53E-01
803	1331	2,57E-01	2,53E-01
804	1331	2,57E-01	2,53E-01
804	1332	3,06E-01	3,03E-01
810	1332	3,06E-01	3,03E-01
809	1332	3,06E-01	3,03E-01
805	1332	3,06E-01	3,03E-01
811	1333	1,15E-01	1,23E-01
812	1333	1,15E-01	1,23E-01
806	1333	1,15E-01	1,23E-01
807	1333	1,15E-01	1,23E-01
812	1334	1,69E-01	1,98E-01
813	1334	1,69E-01	1,98E-01
807	1334	1,69E-01	1,98E-01
808	1334	1,69E-01	1,98E-01
808	1335	2,24E-01	2,76E-01
809	1335	2,24E-01	2,76E-01
813	1335	2,24E-01	2,76E-01
814	1335	2,24E-01	2,76E-01
815	1336	2,73E-01	3,21E-01
809	1336	2,73E-01	3,21E-01
810	1336	2,73E-01	3,21E-01
814	1336	2,73E-01	3,21E-01
817	1337	1,26E-01	1,25E-01
812	1337	1,26E-01	1,25E-01
816	1337	1,26E-01	1,25E-01
811	1337	1,26E-01	1,25E-01
817	1338	1,93E-01	1,90E-01
818	1338	1,93E-01	1,90E-01
812	1338	1,93E-01	1,90E-01
813	1338	1,93E-01	1,90E-01
814	1339	2,58E-01	2,57E-01
819	1339	2,58E-01	2,57E-01
818	1339	2,58E-01	2,57E-01
813	1339	2,58E-01	2,57E-01
819	1340	2,94E-01	2,91E-01
815	1340	2,94E-01	2,91E-01
814	1340	2,94E-01	2,91E-01
820	1340	2,94E-01	2,91E-01
821	1341	1,35E-01	1,30E-01
817	1341	1,35E-01	1,30E-01
822	1341	1,35E-01	1,30E-01
816	1341	1,35E-01	1,30E-01
817	1342	2,08E-01	1,97E-01
818	1342	2,08E-01	1,97E-01
822	1342	2,08E-01	1,97E-01
823	1342	2,08E-01	1,97E-01
819	1343	2,69E-01	2,57E-01
823	1343	2,69E-01	2,57E-01
824	1343	2,69E-01	2,57E-01
818	1343	2,69E-01	2,57E-01
819	1344	3,06E-01	2,94E-01
824	1344	3,06E-01	2,94E-01
820	1344	3,06E-01	2,94E-01
825	1344	3,06E-01	2,94E-01
821	1345	1,32E-01	1,41E-01
822	1345	1,32E-01	1,41E-01
826	1345	1,32E-01	1,41E-01
827	1345	1,32E-01	1,41E-01
823	1346	2,00E-01	2,17E-01
828	1346	2,00E-01	2,17E-01
827	1346	2,00E-01	2,17E-01
822	1346	2,00E-01	2,17E-01
823	1347	2,50E-01	2,83E-01
829	1347	2,50E-01	2,83E-01
828	1347	2,50E-01	2,83E-01
824	1347	2,50E-01	2,83E-01
824	1348	2,93E-01	3,25E-01
830	1348	2,93E-01	3,25E-01
825	1348	2,93E-01	3,25E-01
829	1348	2,93E-01	3,25E-01
826	1349	1,44E-01	1,41E-01
832	1349	1,44E-01	1,41E-01
831	1349	1,44E-01	1,41E-01
827	1349	1,44E-01	1,41E-01
827	1350	2,30E-01	2,13E-01
832	1350	2,30E-01	2,13E-01
833	1350	2,30E-01	2,13E-01
828	1350	2,30E-01	2,13E-01
829	1351	3,00E-01	2,82E-01
828	1351	3,00E-01	2,82E-01
833	1351	3,00E-01	2,82E-01
834	1351	3,00E-01	2,82E-01
829	1352	3,46E-01	3,31E-01
834	1352	3,46E-01	3,31E-01
835	1352	3,46E-01	3,31E-01
830	1352	3,46E-01	3,31E-01
831	1353	1,41E-01	1,35E-01
832	1353	1,41E-01	1,35E-01
837	1353	1,41E-01	1,35E-01
836	1353	1,41E-01	1,35E-01
837	1354	2,29E-01	2,19E-01
838	1354	2,29E-01	2,19E-01
833	1354	2,29E-01	2,19E-01
832	1354	2,29E-01	2,19E-01
838	1355	3,05E-01	3,01E-01
839	1355	3,05E-01	3,01E-01
834	1355	3,05E-01	3,01E-01
833	1355	3,05E-01	3,01E-01
840	1356	3,64E-01	3,61E-01
835	1356	3,64E-01	3,61E-01
839	1356	3,64E-01	3,61E-01
834	1356	3,64E-01	3,61E-01
1618	2006	9,11E-15	9,26E-15
1623	2006	9,11E-15	9,26E-15
1624	2006	9,11E-15	9,26E-15
1619	2006	9,11E-15	9,26E-15
1620	2007	6,68E-15	6,54E-15
1619	2007	6,68E-15	6,54E-15
1624	2007	6,68E-15	6,54E-15
1625	2007	6,68E-15	6,54E-15
1621	2008	5,69E-15	4,40E-15
1625	2008	5,69E-15	4,40E-15
1626	2008	5,69E-15	4,40E-15
1620	2008	5,69E-15	4,40E-15
1626	2009	4,76E-15	4,19E-15
1621	2009	4,76E-15	4,19E-15
1627	2009	4,76E-15	4,19E-15
1622	2009	4,76E-15	4,19E-15
1623	2010	9,51E-15	1,11E-14
1628	2010	9,51E-15	1,11E-14
1629	2010	9,51E-15	1,11E-14
1624	2010	9,51E-15	1,11E-14
1624	2011	1,05E-14	1,08E-14
1630	2011	1,05E-14	1,08E-14
1625	2011	1,05E-14	1,08E-14
1629	2011	1,05E-14	1,08E-14
1630	2012	5,61E-15	4,13E-15
1631	2012	5,61E-15	4,13E-15
1625	2012	5,61E-15	4,13E-15
1626	2012	5,61E-15	4,13E-15
1631	2013	4,15E-15	4,29E-15
1632	2013	4,15E-15	4,29E-15
1627	2013	4,15E-15	4,29E-15
1626	2013	4,15E-15	4,29E-15
1628	2014	8,68E-15	1,01E-14
1633	2014	8,68E-15	1,01E-14
1634	2014	8,68E-15	1,01E-14
1629	2014	8,68E-15	1,01E-14
1629	2015	1,00E-14	1,12E-14
1635	2015	1,00E-14	1,12E-14
1630	2015	1,00E-14	1,12E-14
1634	2015	1,00E-14	1,12E-14
1635	2016	7,31E-15	6,76E-15
1636	2016	7,31E-15	6,76E-15
1630	2016	7,31E-15	6,76E-15
1631	2016	7,31E-15	6,76E-15
1636	2017	6,46E-15	6,19E-15
1637	2017	6,46E-15	6,19E-15
1632	2017	6,46E-15	6,19E-15
1631	2017	6,46E-15	6,19E-15
1634	2018	9,59E-15	9,38E-15
1638	2018	9,59E-15	9,38E-15
1633	2018	9,59E-15	9,38E-15
1639	2018	9,59E-15	9,38E-15
1640	2019	9,35E-15	8,78E-15
1634	2019	9,35E-15	8,78E-15
1635	2019	9,35E-15	8,78E-15
1639	2019	9,35E-15	8,78E-15
1635	2020	7,15E-15	6,17E-15
1640	2020	7,15E-15	6,17E-15
1636	2020	7,15E-15	6,17E-15
1641	2020	7,15E-15	6,17E-15
1642	2021	8,40E-15	7,01E-15
1636	2021	8,40E-15	7,01E-15
1637	2021	8,40E-15	7,01E-15
1641	2021	8,40E-15	7,01E-15
1643	2022	1,27E-14	1,21E-14
1639	2022	1,27E-14	1,21E-14
1644	2022	1,27E-14	1,21E-14
1638	2022	1,27E-14	1,21E-14
1639	2023	1,17E-14	1,03E-14
1645	2023	1,17E-14	1,03E-14
1640	2023	1,17E-14	1,03E-14
1644	2023	1,17E-14	1,03E-14
1640	2024	6,22E-15	6,37E-15
1641	2024	6,22E-15	6,37E-15
1645	2024	6,22E-15	6,37E-15
1646	2024	6,22E-15	6,37E-15
1641	2025	5,43E-15	6,24E-15
1647	2025	5,43E-15	6,24E-15
1646	2025	5,43E-15	6,24E-15
1642	2025	5,43E-15	6,24E-15
1654	2026	3,30E-01	3,48E-01
1648	2026	3,30E-01	3,48E-01
1653	2026	3,30E-01	3,48E-01
1649	2026	3,30E-01	3,48E-01
1650	2027	2,80E-01	3,00E-01
1654	2027	2,80E-01	3,00E-01
1649	2027	2,80E-01	3,00E-01
1655	2027	2,80E-01	3,00E-01
1655	2028	2,08E-01	2,20E-01
1651	2028	2,08E-01	2,20E-01
1656	2028	2,08E-01	2,20E-01
1650	2028	2,08E-01	2,20E-01
1652	2029	1,28E-01	1,33E-01
1657	2029	1,28E-01	1,33E-01
1651	2029	1,28E-01	1,33E-01
1656	2029	1,28E-01	1,33E-01
1653	2030	3,55E-01	3,66E-01
1654	2030	3,55E-01	3,66E-01
1659	2030	3,55E-01	3,66E-01
1658	2030	3,55E-01	3,66E-01
1659	2031	3,08E-01	3,21E-01
1660	2031	3,08E-01	3,21E-01
1654	2031	3,08E-01	3,21E-01
1655	2031	3,08E-01	3,21E-01
1655	2032	2,32E-01	2,37E-01
1656	2032	2,32E-01	2,37E-01
1661	2032	2,32E-01	2,37E-01
1660	2032	2,32E-01	2,37E-01
1661	2033	1,43E-01	1,48E-01
1656	2033	1,43E-01	1,48E-01
1662	2033	1,43E-01	1,48E-01
1657	2033	1,43E-01	1,48E-01
1663	2034	3,99E-01	3,73E-01
1658	2034	3,99E-01	3,73E-01
1659	2034	3,99E-01	3,73E-01
1664	2034	3,99E-01	3,73E-01
1659	2035	3,53E-01	3,25E-01
1660	2035	3,53E-01	3,25E-01
1664	2035	3,53E-01	3,25E-01
1665	2035	3,53E-01	3,25E-01
1660	2036	2,68E-01	2,46E-01
1661	2036	2,68E-01	2,46E-01
1666	2036	2,68E-01	2,46E-01
1665	2036	2,68E-01	2,46E-01
1662	2037	1,59E-01	1,53E-01
1661	2037	1,59E-01	1,53E-01
1666	2037	1,59E-01	1,53E-01
1667	2037	1,59E-01	1,53E-01
1668	2038	3,97E-01	4,05E-01
1664	2038	3,97E-01	4,05E-01
1669	2038	3,97E-01	4,05E-01
1663	2038	3,97E-01	4,05E-01
1669	2039	3,35E-01	3,40E-01
1670	2039	3,35E-01	3,40E-01
1664	2039	3,35E-01	3,40E-01
1665	2039	3,35E-01	3,40E-01
1666	2040	2,52E-01	2,51E-01
1670	2040	2,52E-01	2,51E-01
1665	2040	2,52E-01	2,51E-01
1671	2040	2,52E-01	2,51E-01
1667	2041	1,53E-01	1,51E-01
1666	2041	1,53E-01	1,51E-01
1671	2041	1,53E-01	1,51E-01
1672	2041	1,53E-01	1,51E-01
1833	2162	2,20E-01	2,20E-01
1838	2162	2,20E-01	2,20E-01
1834	2162	2,20E-01	2,20E-01
1839	2162	2,20E-01	2,20E-01
1839	2163	2,70E-01	2,73E-01
1834	2163	2,70E-01	2,73E-01
1840	2163	2,70E-01	2,73E-01
1835	2163	2,70E-01	2,73E-01
1840	2164	3,23E-01	3,28E-01
1835	2164	3,23E-01	3,28E-01
1836	2164	3,23E-01	3,28E-01
1841	2164	3,23E-01	3,28E-01
1841	2165	3,59E-01	3,66E-01
1842	2165	3,59E-01	3,66E-01
1837	2165	3,59E-01	3,66E-01
1836	2165	3,59E-01	3,66E-01
1843	2166	2,27E-01	2,27E-01
1839	2166	2,27E-01	2,27E-01
1844	2166	2,27E-01	2,27E-01
1838	2166	2,27E-01	2,27E-01
1840	2167	2,62E-01	2,70E-01
1845	2167	2,62E-01	2,70E-01
1844	2167	2,62E-01	2,70E-01
1839	2167	2,62E-01	2,70E-01
1841	2168	2,99E-01	3,19E-01
1845	2168	2,99E-01	3,19E-01
1840	2168	2,99E-01	3,19E-01
1846	2168	2,99E-01	3,19E-01
1846	2169	3,34E-01	3,58E-01
1847	2169	3,34E-01	3,58E-01
1842	2169	3,34E-01	3,58E-01
1841	2169	3,34E-01	3,58E-01
1849	2170	2,18E-01	2,12E-01
1848	2170	2,18E-01	2,12E-01
1844	2170	2,18E-01	2,12E-01
1843	2170	2,18E-01	2,12E-01
1850	2171	2,60E-01	2,52E-01
1849	2171	2,60E-01	2,52E-01
1844	2171	2,60E-01	2,52E-01
1845	2171	2,60E-01	2,52E-01
1850	2172	3,01E-01	2,94E-01
1845	2172	3,01E-01	2,94E-01
1846	2172	3,01E-01	2,94E-01
1851	2172	3,01E-01	2,94E-01
1851	2173	3,37E-01	3,35E-01
1852	2173	3,37E-01	3,35E-01
1846	2173	3,37E-01	3,35E-01
1847	2173	3,37E-01	3,35E-01
1849	2174	2,14E-01	2,11E-01
1853	2174	2,14E-01	2,11E-01
1854	2174	2,14E-01	2,11E-01
1848	2174	2,14E-01	2,11E-01
1849	2175	2,51E-01	2,38E-01
1855	2175	2,51E-01	2,38E-01
1854	2175	2,51E-01	2,38E-01
1850	2175	2,51E-01	2,38E-01
1851	2176	2,91E-01	2,72E-01
1850	2176	2,91E-01	2,72E-01
1856	2176	2,91E-01	2,72E-01
1855	2176	2,91E-01	2,72E-01
1851	2177	3,06E-01	2,81E-01
1856	2177	3,06E-01	2,81E-01
1857	2177	3,06E-01	2,81E-01
1852	2177	3,06E-01	2,81E-01
1858	2178	2,50E-02	2,69E-02
1863	2178	2,50E-02	2,69E-02
1859	2178	2,50E-02	2,69E-02
1864	2178	2,50E-02	2,69E-02
1860	2179	4,05E-02	4,08E-02
1864	2179	4,05E-02	4,08E-02
1859	2179	4,05E-02	4,08E-02
1865	2179	4,05E-02	4,08E-02
1865	2180	5,35E-02	5,35E-02
1866	2180	5,35E-02	5,35E-02
1860	2180	5,35E-02	5,35E-02
1861	2180	5,35E-02	5,35E-02
1867	2181	6,30E-02	6,26E-02
1866	2181	6,30E-02	6,26E-02
1862	2181	6,30E-02	6,26E-02
1861	2181	6,30E-02	6,26E-02
1868	2182	2,45E-02	2,79E-02
1869	2182	2,45E-02	2,79E-02
1863	2182	2,45E-02	2,79E-02
1864	2182	2,45E-02	2,79E-02
1870	2183	4,65E-02	4,82E-02
1864	2183	4,65E-02	4,82E-02
1869	2183	4,65E-02	4,82E-02
1865	2183	4,65E-02	4,82E-02
1865	2184	6,39E-02	6,49E-02
1870	2184	6,39E-02	6,49E-02
1866	2184	6,39E-02	6,49E-02
1871	2184	6,39E-02	6,49E-02
1867	2185	7,75E-02	7,66E-02
1871	2185	7,75E-02	7,66E-02
1872	2185	7,75E-02	7,66E-02
1866	2185	7,75E-02	7,66E-02
1869	2186	2,89E-02	2,99E-02
1874	2186	2,89E-02	2,99E-02
1868	2186	2,89E-02	2,99E-02
1873	2186	2,89E-02	2,99E-02
1870	2187	4,92E-02	5,06E-02
1875	2187	4,92E-02	5,06E-02
1874	2187	4,92E-02	5,06E-02
1869	2187	4,92E-02	5,06E-02
1876	2188	6,61E-02	6,74E-02
1870	2188	6,61E-02	6,74E-02
1871	2188	6,61E-02	6,74E-02
1875	2188	6,61E-02	6,74E-02
1877	2189	7,79E-02	7,76E-02
1871	2189	7,79E-02	7,76E-02
1876	2189	7,79E-02	7,76E-02
1872	2189	7,79E-02	7,76E-02
1874	2190	4,40E-02	4,08E-02
1873	2190	4,40E-02	4,08E-02
1879	2190	4,40E-02	4,08E-02
1878	2190	4,40E-02	4,08E-02
1879	2191	5,61E-02	5,41E-02
1875	2191	5,61E-02	5,41E-02
1880	2191	5,61E-02	5,41E-02
1874	2191	5,61E-02	5,41E-02
1881	2192	6,97E-02	6,94E-02
1880	2192	6,97E-02	6,94E-02
1875	2192	6,97E-02	6,94E-02
1876	2192	6,97E-02	6,94E-02
1882	2193	7,87E-02	7,85E-02
1877	2193	7,87E-02	7,85E-02
1876	2193	7,87E-02	7,85E-02
1881	2193	7,87E-02	7,85E-02
1883	2194	5,54E-02	6,15E-02
1879	2194	5,54E-02	6,15E-02
1884	2194	5,54E-02	6,15E-02
1878	2194	5,54E-02	6,15E-02
1879	2195	6,16E-02	6,67E-02
1880	2195	6,16E-02	6,67E-02
1884	2195	6,16E-02	6,67E-02
1885	2195	6,16E-02	6,67E-02
1886	2196	7,22E-02	7,46E-02
1885	2196	7,22E-02	7,46E-02
1880	2196	7,22E-02	7,46E-02
1881	2196	7,22E-02	7,46E-02
1887	2197	7,93E-02	8,02E-02
1882	2197	7,93E-02	8,02E-02
1881	2197	7,93E-02	8,02E-02
1886	2197	7,93E-02	8,02E-02
1884	2198	8,01E-02	7,64E-02
1883	2198	8,01E-02	7,64E-02
1888	2198	8,01E-02	7,64E-02
1889	2198	8,01E-02	7,64E-02
1890	2199	7,91E-02	7,48E-02
1889	2199	7,91E-02	7,48E-02
1884	2199	7,91E-02	7,48E-02
1885	2199	7,91E-02	7,48E-02
1891	2200	8,14E-02	7,75E-02
1885	2200	8,14E-02	7,75E-02
1886	2200	8,14E-02	7,75E-02
1890	2200	8,14E-02	7,75E-02
1887	2201	8,27E-02	8,17E-02
1886	2201	8,27E-02	8,17E-02
1891	2201	8,27E-02	8,17E-02
1892	2201	8,27E-02	8,17E-02
1889	2202	9,51E-02	9,52E-02
1893	2202	9,51E-02	9,52E-02
1888	2202	9,51E-02	9,52E-02
1894	2202	9,51E-02	9,52E-02
1889	2203	8,58E-02	8,48E-02
1894	2203	8,58E-02	8,48E-02
1895	2203	8,58E-02	8,48E-02
1890	2203	8,58E-02	8,48E-02
1890	2204	8,45E-02	8,16E-02
1896	2204	8,45E-02	8,16E-02
1891	2204	8,45E-02	8,16E-02
1895	2204	8,45E-02	8,16E-02
1897	2205	8,36E-02	8,13E-02
1896	2205	8,36E-02	8,13E-02
1892	2205	8,36E-02	8,13E-02
1891	2205	8,36E-02	8,13E-02
1899	2206	8,29E-02	9,62E-02
1894	2206	8,29E-02	9,62E-02
1893	2206	8,29E-02	9,62E-02
1898	2206	8,29E-02	9,62E-02
1900	2207	7,82E-02	9,19E-02
1894	2207	7,82E-02	9,19E-02
1899	2207	7,82E-02	9,19E-02
1895	2207	7,82E-02	9,19E-02
1896	2208	7,87E-02	8,46E-02
1895	2208	7,87E-02	8,46E-02
1901	2208	7,87E-02	8,46E-02
1900	2208	7,87E-02	8,46E-02
1901	2209	8,10E-02	8,15E-02
1896	2209	8,10E-02	8,15E-02
1897	2209	8,10E-02	8,15E-02
1902	2209	8,10E-02	8,15E-02
1904	2210	8,52E-02	8,40E-02
1903	2210	8,52E-02	8,40E-02
1898	2210	8,52E-02	8,40E-02
1899	2210	8,52E-02	8,40E-02
1904	2211	8,80E-02	8,91E-02
1900	2211	8,80E-02	8,91E-02
1899	2211	8,80E-02	8,91E-02
1905	2211	8,80E-02	8,91E-02
1906	2212	8,41E-02	8,44E-02
1900	2212	8,41E-02	8,44E-02
1905	2212	8,41E-02	8,44E-02
1901	2212	8,41E-02	8,44E-02
1902	2213	8,29E-02	8,25E-02
1901	2213	8,29E-02	8,25E-02
1906	2213	8,29E-02	8,25E-02
1907	2213	8,29E-02	8,25E-02
1903	2214	9,83E-02	9,49E-02
1904	2214	9,83E-02	9,49E-02
1908	2214	9,83E-02	9,49E-02
1909	2214	9,83E-02	9,49E-02
1904	2215	9,65E-02	9,45E-02
1909	2215	9,65E-02	9,45E-02
1910	2215	9,65E-02	9,45E-02
1905	2215	9,65E-02	9,45E-02
1910	2216	9,11E-02	8,98E-02
1911	2216	9,11E-02	8,98E-02
1906	2216	9,11E-02	8,98E-02
1905	2216	9,11E-02	8,98E-02
1912	2217	8,57E-02	8,44E-02
1906	2217	8,57E-02	8,44E-02
1907	2217	8,57E-02	8,44E-02
1911	2217	8,57E-02	8,44E-02
1914	2218	1,06E-01	1,17E-01
1913	2218	1,06E-01	1,17E-01
1909	2218	1,06E-01	1,17E-01
1908	2218	1,06E-01	1,17E-01
1915	2219	9,89E-02	1,10E-01
1910	2219	9,89E-02	1,10E-01
1914	2219	9,89E-02	1,10E-01
1909	2219	9,89E-02	1,10E-01
1916	2220	9,37E-02	9,92E-02
1910	2220	9,37E-02	9,92E-02
1915	2220	9,37E-02	9,92E-02
1911	2220	9,37E-02	9,92E-02
1911	2221	8,65E-02	8,86E-02
1917	2221	8,65E-02	8,86E-02
1916	2221	8,65E-02	8,86E-02
1912	2221	8,65E-02	8,86E-02
1914	2222	1,38E-01	1,32E-01
1919	2222	1,38E-01	1,32E-01
1918	2222	1,38E-01	1,32E-01
1913	2222	1,38E-01	1,32E-01
1920	2223	1,25E-01	1,17E-01
1915	2223	1,25E-01	1,17E-01
1914	2223	1,25E-01	1,17E-01
1919	2223	1,25E-01	1,17E-01
1920	2224	1,09E-01	1,02E-01
1916	2224	1,09E-01	1,02E-01
1915	2224	1,09E-01	1,02E-01
1921	2224	1,09E-01	1,02E-01
1916	2225	9,21E-02	9,08E-02
1921	2225	9,21E-02	9,08E-02
1922	2225	9,21E-02	9,08E-02
1917	2225	9,21E-02	9,08E-02
1919	2226	1,54E-01	1,53E-01
1923	2226	1,54E-01	1,53E-01
1924	2226	1,54E-01	1,53E-01
1918	2226	1,54E-01	1,53E-01
1919	2227	1,32E-01	1,29E-01
1920	2227	1,32E-01	1,29E-01
1925	2227	1,32E-01	1,29E-01
1924	2227	1,32E-01	1,29E-01
1920	2228	1,12E-01	1,07E-01
1921	2228	1,12E-01	1,07E-01
1926	2228	1,12E-01	1,07E-01
1925	2228	1,12E-01	1,07E-01
1921	2229	9,27E-02	8,97E-02
1922	2229	9,27E-02	8,97E-02
1927	2229	9,27E-02	8,97E-02
1926	2229	9,27E-02	8,97E-02
1924	2230	1,37E-01	1,61E-01
1928	2230	1,37E-01	1,61E-01
1923	2230	1,37E-01	1,61E-01
1929	2230	1,37E-01	1,61E-01
1929	2231	1,18E-01	1,43E-01
1924	2231	1,18E-01	1,43E-01
1930	2231	1,18E-01	1,43E-01
1925	2231	1,18E-01	1,43E-01
1931	2232	1,01E-01	1,13E-01
1925	2232	1,01E-01	1,13E-01
1926	2232	1,01E-01	1,13E-01
1930	2232	1,01E-01	1,13E-01
1932	2233	8,83E-02	9,06E-02
1927	2233	8,83E-02	9,06E-02
1931	2233	8,83E-02	9,06E-02
1926	2233	8,83E-02	9,06E-02
1929	2234	1,47E-01	1,43E-01
1934	2234	1,47E-01	1,43E-01
1933	2234	1,47E-01	1,43E-01
1928	2234	1,47E-01	1,43E-01
1930	2235	1,35E-01	1,36E-01
1935	2235	1,35E-01	1,36E-01
1929	2235	1,35E-01	1,36E-01
1934	2235	1,35E-01	1,36E-01
1936	2236	1,11E-01	1,11E-01
1935	2236	1,11E-01	1,11E-01
1930	2236	1,11E-01	1,11E-01
1931	2236	1,11E-01	1,11E-01
1937	2237	9,24E-02	9,16E-02
1936	2237	9,24E-02	9,16E-02
1932	2237	9,24E-02	9,16E-02
1931	2237	9,24E-02	9,16E-02
1939	2238	1,56E-01	1,57E-01
1938	2238	1,56E-01	1,57E-01
1933	2238	1,56E-01	1,57E-01
1934	2238	1,56E-01	1,57E-01
1935	2239	1,43E-01	1,44E-01
1934	2239	1,43E-01	1,44E-01
1940	2239	1,43E-01	1,44E-01
1939	2239	1,43E-01	1,44E-01
1936	2240	1,21E-01	1,20E-01
1940	2240	1,21E-01	1,20E-01
1941	2240	1,21E-01	1,20E-01
1935	2240	1,21E-01	1,20E-01
1942	2241	9,69E-02	9,56E-02
1937	2241	9,69E-02	9,56E-02
1936	2241	9,69E-02	9,56E-02
1941	2241	9,69E-02	9,56E-02
1938	2242	1,67E-01	1,69E-01
1943	2242	1,67E-01	1,69E-01
1944	2242	1,67E-01	1,69E-01
1939	2242	1,67E-01	1,69E-01
1945	2243	1,48E-01	1,51E-01
1940	2243	1,48E-01	1,51E-01
1944	2243	1,48E-01	1,51E-01
1939	2243	1,48E-01	1,51E-01
1940	2244	1,26E-01	1,26E-01
1941	2244	1,26E-01	1,26E-01
1946	2244	1,26E-01	1,26E-01
1945	2244	1,26E-01	1,26E-01
1941	2245	1,01E-01	9,97E-02
1942	2245	1,01E-01	9,97E-02
1946	2245	1,01E-01	9,97E-02
1947	2245	1,01E-01	9,97E-02
1949	2246	1,79E-01	1,92E-01
1944	2246	1,79E-01	1,92E-01
1948	2246	1,79E-01	1,92E-01
1943	2246	1,79E-01	1,92E-01
1950	2247	1,56E-01	1,68E-01
1949	2247	1,56E-01	1,68E-01
1945	2247	1,56E-01	1,68E-01
1944	2247	1,56E-01	1,68E-01
1945	2248	1,31E-01	1,36E-01
1951	2248	1,31E-01	1,36E-01
1950	2248	1,31E-01	1,36E-01
1946	2248	1,31E-01	1,36E-01
1947	2249	1,02E-01	1,05E-01
1946	2249	1,02E-01	1,05E-01
1952	2249	1,02E-01	1,05E-01
1951	2249	1,02E-01	1,05E-01
1948	2250	2,14E-01	2,08E-01
1949	2250	2,14E-01	2,08E-01
1954	2250	2,14E-01	2,08E-01
1953	2250	2,14E-01	2,08E-01
1950	2251	1,87E-01	1,79E-01
1949	2251	1,87E-01	1,79E-01
1955	2251	1,87E-01	1,79E-01
1954	2251	1,87E-01	1,79E-01
1950	2252	1,51E-01	1,41E-01
1956	2252	1,51E-01	1,41E-01
1951	2252	1,51E-01	1,41E-01
1955	2252	1,51E-01	1,41E-01
1956	2253	1,09E-01	1,07E-01
1951	2253	1,09E-01	1,07E-01
1957	2253	1,09E-01	1,07E-01
1952	2253	1,09E-01	1,07E-01
1958	2254	2,32E-01	2,29E-01
1954	2254	2,32E-01	2,29E-01
1953	2254	2,32E-01	2,29E-01
1959	2254	2,32E-01	2,29E-01
1960	2255	1,95E-01	1,92E-01
1955	2255	1,95E-01	1,92E-01
1959	2255	1,95E-01	1,92E-01
1954	2255	1,95E-01	1,92E-01
1961	2256	1,53E-01	1,46E-01
1955	2256	1,53E-01	1,46E-01
1956	2256	1,53E-01	1,46E-01
1960	2256	1,53E-01	1,46E-01
1961	2257	1,09E-01	1,04E-01
1957	2257	1,09E-01	1,04E-01
1956	2257	1,09E-01	1,04E-01
1962	2257	1,09E-01	1,04E-01
1959	2258	2,06E-01	2,43E-01
1963	2258	2,06E-01	2,43E-01
1964	2258	2,06E-01	2,43E-01
1958	2258	2,06E-01	2,43E-01
1959	2259	1,72E-01	2,11E-01
1960	2259	1,72E-01	2,11E-01
1965	2259	1,72E-01	2,11E-01
1964	2259	1,72E-01	2,11E-01
1960	2260	1,34E-01	1,55E-01
1965	2260	1,34E-01	1,55E-01
1961	2260	1,34E-01	1,55E-01
1966	2260	1,34E-01	1,55E-01
1962	2261	1,01E-01	1,06E-01
1961	2261	1,01E-01	1,06E-01
1967	2261	1,01E-01	1,06E-01
1966	2261	1,01E-01	1,06E-01
1963	2262	2,21E-01	2,16E-01
1968	2262	2,21E-01	2,16E-01
1969	2262	2,21E-01	2,16E-01
1964	2262	2,21E-01	2,16E-01
1969	2263	1,96E-01	1,96E-01
1970	2263	1,96E-01	1,96E-01
1964	2263	1,96E-01	1,96E-01
1965	2263	1,96E-01	1,96E-01
1966	2264	1,50E-01	1,49E-01
1971	2264	1,50E-01	1,49E-01
1970	2264	1,50E-01	1,49E-01
1965	2264	1,50E-01	1,49E-01
1967	2265	1,08E-01	1,06E-01
1972	2265	1,08E-01	1,06E-01
1966	2265	1,08E-01	1,06E-01
1971	2265	1,08E-01	1,06E-01
1973	2266	2,28E-01	2,28E-01
1969	2266	2,28E-01	2,28E-01
1968	2266	2,28E-01	2,28E-01
1974	2266	2,28E-01	2,28E-01
1974	2267	2,04E-01	2,03E-01
1969	2267	2,04E-01	2,03E-01
1970	2267	2,04E-01	2,03E-01
1975	2267	2,04E-01	2,03E-01
1976	2268	1,62E-01	1,59E-01
1970	2268	1,62E-01	1,59E-01
1971	2268	1,62E-01	1,59E-01
1975	2268	1,62E-01	1,59E-01
1977	2269	1,14E-01	1,12E-01
1971	2269	1,14E-01	1,12E-01
1976	2269	1,14E-01	1,12E-01
1972	2269	1,14E-01	1,12E-01
1973	2270	2,35E-01	2,40E-01
1978	2270	2,35E-01	2,40E-01
1979	2270	2,35E-01	2,40E-01
1974	2270	2,35E-01	2,40E-01
1974	2271	2,04E-01	2,10E-01
1980	2271	2,04E-01	2,10E-01
1979	2271	2,04E-01	2,10E-01
1975	2271	2,04E-01	2,10E-01
1980	2272	1,65E-01	1,66E-01
1976	2272	1,65E-01	1,66E-01
1975	2272	1,65E-01	1,66E-01
1981	2272	1,65E-01	1,66E-01
1981	2273	1,18E-01	1,17E-01
1976	2273	1,18E-01	1,17E-01
1982	2273	1,18E-01	1,17E-01
1977	2273	1,18E-01	1,17E-01
1978	2274	2,48E-01	2,63E-01
1983	2274	2,48E-01	2,63E-01
1979	2274	2,48E-01	2,63E-01
1984	2274	2,48E-01	2,63E-01
1984	2275	2,12E-01	2,27E-01
1979	2275	2,12E-01	2,27E-01
1985	2275	2,12E-01	2,27E-01
1980	2275	2,12E-01	2,27E-01
1985	2276	1,70E-01	1,77E-01
1986	2276	1,70E-01	1,77E-01
1980	2276	1,70E-01	1,77E-01
1981	2276	1,70E-01	1,77E-01
1981	2277	1,19E-01	1,23E-01
1982	2277	1,19E-01	1,23E-01
1987	2277	1,19E-01	1,23E-01
1986	2277	1,19E-01	1,23E-01
1984	2278	2,86E-01	2,80E-01
1989	2278	2,86E-01	2,80E-01
1988	2278	2,86E-01	2,80E-01
1983	2278	2,86E-01	2,80E-01
1989	2279	2,49E-01	2,38E-01
1990	2279	2,49E-01	2,38E-01
1985	2279	2,49E-01	2,38E-01
1984	2279	2,49E-01	2,38E-01
1991	2280	1,94E-01	1,82E-01
1985	2280	1,94E-01	1,82E-01
1986	2280	1,94E-01	1,82E-01
1990	2280	1,94E-01	1,82E-01
1987	2281	1,28E-01	1,25E-01
1991	2281	1,28E-01	1,25E-01
1992	2281	1,28E-01	1,25E-01
1986	2281	1,28E-01	1,25E-01
1988	2282	3,06E-01	3,03E-01
1989	2282	3,06E-01	3,03E-01
1994	2282	3,06E-01	3,03E-01
1993	2282	3,06E-01	3,03E-01
1990	2283	2,57E-01	2,53E-01
1994	2283	2,57E-01	2,53E-01
1989	2283	2,57E-01	2,53E-01
1995	2283	2,57E-01	2,53E-01
1991	2284	1,95E-01	1,86E-01
1995	2284	1,95E-01	1,86E-01
1996	2284	1,95E-01	1,86E-01
1990	2284	1,95E-01	1,86E-01
1992	2285	1,26E-01	1,21E-01
1996	2285	1,26E-01	1,21E-01
1991	2285	1,26E-01	1,21E-01
1997	2285	1,26E-01	1,21E-01
1998	2286	2,73E-01	3,21E-01
1994	2286	2,73E-01	3,21E-01
1999	2286	2,73E-01	3,21E-01
1993	2286	2,73E-01	3,21E-01
1995	2287	2,24E-01	2,76E-01
1999	2287	2,24E-01	2,76E-01
2000	2287	2,24E-01	2,76E-01
1994	2287	2,24E-01	2,76E-01
1996	2288	1,69E-01	1,98E-01
2000	2288	1,69E-01	1,98E-01
1995	2288	1,69E-01	1,98E-01
2001	2288	1,69E-01	1,98E-01
2002	2289	1,15E-01	1,23E-01
2001	2289	1,15E-01	1,23E-01
1996	2289	1,15E-01	1,23E-01
1997	2289	1,15E-01	1,23E-01
2003	2290	2,94E-01	2,91E-01
2004	2290	2,94E-01	2,91E-01
1998	2290	2,94E-01	2,91E-01
1999	2290	2,94E-01	2,91E-01
1999	2291	2,58E-01	2,57E-01
2004	2291	2,58E-01	2,57E-01
2005	2291	2,58E-01	2,57E-01
2000	2291	2,58E-01	2,57E-01
2000	2292	1,93E-01	1,90E-01
2001	2292	1,93E-01	1,90E-01
2006	2292	1,93E-01	1,90E-01
2005	2292	1,93E-01	1,90E-01
2007	2293	1,26E-01	1,25E-01
2006	2293	1,26E-01	1,25E-01
2002	2293	1,26E-01	1,25E-01
2001	2293	1,26E-01	1,25E-01
2008	2294	3,06E-01	2,94E-01
2009	2294	3,06E-01	2,94E-01
2003	2294	3,06E-01	2,94E-01
2004	2294	3,06E-01	2,94E-01
2005	2295	2,69E-01	2,57E-01
2010	2295	2,69E-01	2,57E-01
2009	2295	2,69E-01	2,57E-01
2004	2295	2,69E-01	2,57E-01
2006	2296	2,08E-01	1,97E-01
2011	2296	2,08E-01	1,97E-01
2005	2296	2,08E-01	1,97E-01
2010	2296	2,08E-01	1,97E-01
2006	2297	1,35E-01	1,30E-01
2011	2297	1,35E-01	1,30E-01
2012	2297	1,35E-01	1,30E-01
2007	2297	1,35E-01	1,30E-01
2014	2298	2,93E-01	3,25E-01
2013	2298	2,93E-01	3,25E-01
2008	2298	2,93E-01	3,25E-01
2009	2298	2,93E-01	3,25E-01
2015	2299	2,50E-01	2,83E-01
2014	2299	2,50E-01	2,83E-01
2010	2299	2,50E-01	2,83E-01
2009	2299	2,50E-01	2,83E-01
2015	2300	2,00E-01	2,17E-01
2011	2300	2,00E-01	2,17E-01
2010	2300	2,00E-01	2,17E-01
2016	2300	2,00E-01	2,17E-01
2011	2301	1,32E-01	1,41E-01
2016	2301	1,32E-01	1,41E-01
2012	2301	1,32E-01	1,41E-01
2017	2301	1,32E-01	1,41E-01
2013	2302	3,46E-01	3,31E-01
2018	2302	3,46E-01	3,31E-01
2014	2302	3,46E-01	3,31E-01
2019	2302	3,46E-01	3,31E-01
2019	2303	3,00E-01	2,82E-01
2015	2303	3,00E-01	2,82E-01
2014	2303	3,00E-01	2,82E-01
2020	2303	3,00E-01	2,82E-01
2016	2304	2,30E-01	2,13E-01
2015	2304	2,30E-01	2,13E-01
2021	2304	2,30E-01	2,13E-01
2020	2304	2,30E-01	2,13E-01
2021	2305	1,44E-01	1,41E-01
2016	2305	1,44E-01	1,41E-01
2017	2305	1,44E-01	1,41E-01
2022	2305	1,44E-01	1,41E-01
2018	2306	3,64E-01	3,61E-01
2019	2306	3,64E-01	3,61E-01
2024	2306	3,64E-01	3,61E-01
2023	2306	3,64E-01	3,61E-01
2024	2307	3,05E-01	3,01E-01
2020	2307	3,05E-01	3,01E-01
2025	2307	3,05E-01	3,01E-01
2019	2307	3,05E-01	3,01E-01
2020	2308	2,29E-01	2,19E-01
2026	2308	2,29E-01	2,19E-01
2021	2308	2,29E-01	2,19E-01
2025	2308	2,29E-01	2,19E-01
2021	2309	1,41E-01	1,35E-01
2026	2309	1,41E-01	1,35E-01
2027	2309	1,41E-01	1,35E-01
2022	2309	1,41E-01	1,35E-01
2151	2384	3,59E-01	3,66E-01
2146	2384	3,59E-01	3,66E-01
2150	2384	3,59E-01	3,66E-01
2145	2384	3,59E-01	3,66E-01
2146	2385	3,23E-01	3,28E-01
2151	2385	3,23E-01	3,28E-01
2147	2385	3,23E-01	3,28E-01
2152	2385	3,23E-01	3,28E-01
2147	2386	2,70E-01	2,73E-01
2148	2386	2,70E-01	2,73E-01
2153	2386	2,70E-01	2,73E-01
2152	2386	2,70E-01	2,73E-01
2153	2387	2,20E-01	2,20E-01
2154	2387	2,20E-01	2,20E-01
2149	2387	2,20E-01	2,20E-01
2148	2387	2,20E-01	2,20E-01
2150	2388	3,34E-01	3,58E-01
2156	2388	3,34E-01	3,58E-01
2155	2388	3,34E-01	3,58E-01
2151	2388	3,34E-01	3,58E-01
2157	2389	2,99E-01	3,19E-01
2151	2389	2,99E-01	3,19E-01
2152	2389	2,99E-01	3,19E-01
2156	2389	2,99E-01	3,19E-01
2158	2390	2,62E-01	2,70E-01
2153	2390	2,62E-01	2,70E-01
2152	2390	2,62E-01	2,70E-01
2157	2390	2,62E-01	2,70E-01
2159	2391	2,27E-01	2,27E-01
2154	2391	2,27E-01	2,27E-01
2158	2391	2,27E-01	2,27E-01
2153	2391	2,27E-01	2,27E-01
2161	2392	3,37E-01	3,35E-01
2155	2392	3,37E-01	3,35E-01
2156	2392	3,37E-01	3,35E-01
2160	2392	3,37E-01	3,35E-01
2162	2393	3,01E-01	2,94E-01
2157	2393	3,01E-01	2,94E-01
2161	2393	3,01E-01	2,94E-01
2156	2393	3,01E-01	2,94E-01
2163	2394	2,60E-01	2,52E-01
2162	2394	2,60E-01	2,52E-01
2158	2394	2,60E-01	2,52E-01
2157	2394	2,60E-01	2,52E-01
2159	2395	2,18E-01	2,12E-01
2164	2395	2,18E-01	2,12E-01
2163	2395	2,18E-01	2,12E-01
2158	2395	2,18E-01	2,12E-01
2160	2396	3,06E-01	2,81E-01
2161	2396	3,06E-01	2,81E-01
2166	2396	3,06E-01	2,81E-01
2165	2396	3,06E-01	2,81E-01
2162	2397	2,91E-01	2,72E-01
2161	2397	2,91E-01	2,72E-01
2166	2397	2,91E-01	2,72E-01
2167	2397	2,91E-01	2,72E-01
2162	2398	2,51E-01	2,38E-01
2163	2398	2,51E-01	2,38E-01
2167	2398	2,51E-01	2,38E-01
2168	2398	2,51E-01	2,38E-01
2164	2399	2,14E-01	2,11E-01
2168	2399	2,14E-01	2,11E-01
2169	2399	2,14E-01	2,11E-01
2163	2399	2,14E-01	2,11E-01
2171	2400	2,03E-01	1,98E-01
2170	2400	2,03E-01	1,98E-01
2176	2400	2,03E-01	1,98E-01
2175	2400	2,03E-01	1,98E-01
2172	2401	2,22E-01	2,15E-01
2171	2401	2,22E-01	2,15E-01
2176	2401	2,22E-01	2,15E-01
2177	2401	2,22E-01	2,15E-01
2172	2402	2,39E-01	2,34E-01
2178	2402	2,39E-01	2,34E-01
2173	2402	2,39E-01	2,34E-01
2177	2402	2,39E-01	2,34E-01
2179	2403	2,58E-01	2,59E-01
2174	2403	2,58E-01	2,59E-01
2173	2403	2,58E-01	2,59E-01
2178	2403	2,58E-01	2,59E-01
2180	2404	2,01E-01	1,98E-01
2175	2404	2,01E-01	1,98E-01
2181	2404	2,01E-01	1,98E-01
2176	2404	2,01E-01	1,98E-01
2182	2405	2,16E-01	2,04E-01
2181	2405	2,16E-01	2,04E-01
2176	2405	2,16E-01	2,04E-01
2177	2405	2,16E-01	2,04E-01
2178	2406	2,33E-01	2,15E-01
2183	2406	2,33E-01	2,15E-01
2182	2406	2,33E-01	2,15E-01
2177	2406	2,33E-01	2,15E-01
2179	2407	2,33E-01	2,08E-01
2183	2407	2,33E-01	2,08E-01
2178	2407	2,33E-01	2,08E-01
2184	2407	2,33E-01	2,08E-01
2181	2408	1,94E-01	1,98E-01
2185	2408	1,94E-01	1,98E-01
2186	2408	1,94E-01	1,98E-01
2180	2408	1,94E-01	1,98E-01
2187	2409	1,92E-01	2,08E-01
2182	2409	1,92E-01	2,08E-01
2181	2409	1,92E-01	2,08E-01
2186	2409	1,92E-01	2,08E-01
2188	2410	1,89E-01	2,27E-01
2182	2410	1,89E-01	2,27E-01
2187	2410	1,89E-01	2,27E-01
2183	2410	1,89E-01	2,27E-01
2189	2411	1,99E-01	2,38E-01
2183	2411	1,99E-01	2,38E-01
2184	2411	1,99E-01	2,38E-01
2188	2411	1,99E-01	2,38E-01
2190	2412	2,03E-01	1,97E-01
2185	2412	2,03E-01	1,97E-01
2191	2412	2,03E-01	1,97E-01
2186	2412	2,03E-01	1,97E-01
2187	2413	2,04E-01	1,97E-01
2191	2413	2,04E-01	1,97E-01
2186	2413	2,04E-01	1,97E-01
2192	2413	2,04E-01	1,97E-01
2193	2414	2,05E-01	2,03E-01
2188	2414	2,05E-01	2,03E-01
2192	2414	2,05E-01	2,03E-01
2187	2414	2,05E-01	2,03E-01
2188	2415	2,27E-01	2,27E-01
2189	2415	2,27E-01	2,27E-01
2193	2415	2,27E-01	2,27E-01
2194	2415	2,27E-01	2,27E-01
2190	2416	2,01E-01	1,98E-01
2195	2416	2,01E-01	1,98E-01
2196	2416	2,01E-01	1,98E-01
2191	2416	2,01E-01	1,98E-01
2196	2417	1,97E-01	1,87E-01
2192	2417	1,97E-01	1,87E-01
2197	2417	1,97E-01	1,87E-01
2191	2417	1,97E-01	1,87E-01
2197	2418	1,90E-01	1,79E-01
2192	2418	1,90E-01	1,79E-01
2198	2418	1,90E-01	1,79E-01
2193	2418	1,90E-01	1,79E-01
2199	2419	1,92E-01	1,82E-01
2193	2419	1,92E-01	1,82E-01
2194	2419	1,92E-01	1,82E-01
2198	2419	1,92E-01	1,82E-01
2195	2420	1,93E-01	1,95E-01
2201	2420	1,93E-01	1,95E-01
2200	2420	1,93E-01	1,95E-01
2196	2420	1,93E-01	1,95E-01
2197	2421	1,75E-01	1,81E-01
2202	2421	1,75E-01	1,81E-01
2196	2421	1,75E-01	1,81E-01
2201	2421	1,75E-01	1,81E-01
2202	2422	1,49E-01	1,61E-01
2203	2422	1,49E-01	1,61E-01
2197	2422	1,49E-01	1,61E-01
2198	2422	1,49E-01	1,61E-01
2203	2423	1,33E-01	1,47E-01
2198	2423	1,33E-01	1,47E-01
2204	2423	1,33E-01	1,47E-01
2199	2423	1,33E-01	1,47E-01
2200	2424	1,92E-01	1,91E-01
2205	2424	1,92E-01	1,91E-01
2206	2424	1,92E-01	1,91E-01
2201	2424	1,92E-01	1,91E-01
2207	2425	1,69E-01	1,69E-01
2201	2425	1,69E-01	1,69E-01
2206	2425	1,69E-01	1,69E-01
2202	2425	1,69E-01	1,69E-01
2203	2426	1,36E-01	1,31E-01
2208	2426	1,36E-01	1,31E-01
2202	2426	1,36E-01	1,31E-01
2207	2426	1,36E-01	1,31E-01
2209	2427	1,05E-01	9,75E-02
2204	2427	1,05E-01	9,75E-02
2208	2427	1,05E-01	9,75E-02
2203	2427	1,05E-01	9,75E-02
2205	2428	1,90E-01	1,89E-01
2211	2428	1,90E-01	1,89E-01
2206	2428	1,90E-01	1,89E-01
2210	2428	1,90E-01	1,89E-01
2211	2429	1,61E-01	1,64E-01
2206	2429	1,61E-01	1,64E-01
2212	2429	1,61E-01	1,64E-01
2207	2429	1,61E-01	1,64E-01
2213	2430	1,20E-01	1,23E-01
2212	2430	1,20E-01	1,23E-01
2207	2430	1,20E-01	1,23E-01
2208	2430	1,20E-01	1,23E-01
2208	2431	6,94E-02	7,18E-02
2209	2431	6,94E-02	7,18E-02
2214	2431	6,94E-02	7,18E-02
2213	2431	6,94E-02	7,18E-02
2216	2432	1,89E-01	1,87E-01
2210	2432	1,89E-01	1,87E-01
2211	2432	1,89E-01	1,87E-01
2215	2432	1,89E-01	1,87E-01
2212	2433	1,56E-01	1,58E-01
2211	2433	1,56E-01	1,58E-01
2216	2433	1,56E-01	1,58E-01
2217	2433	1,56E-01	1,58E-01
2218	2434	1,13E-01	1,17E-01
2217	2434	1,13E-01	1,17E-01
2212	2434	1,13E-01	1,17E-01
2213	2434	1,13E-01	1,17E-01
2213	2435	5,90E-02	6,78E-02
2218	2435	5,90E-02	6,78E-02
2219	2435	5,90E-02	6,78E-02
2214	2435	5,90E-02	6,78E-02
2220	2436	1,53E-01	1,53E-01
2221	2436	1,53E-01	1,53E-01
2216	2436	1,53E-01	1,53E-01
2215	2436	1,53E-01	1,53E-01
2217	2437	1,30E-01	1,30E-01
2221	2437	1,30E-01	1,30E-01
2216	2437	1,30E-01	1,30E-01
2222	2437	1,30E-01	1,30E-01
2222	2438	9,85E-02	9,92E-02
2223	2438	9,85E-02	9,92E-02
2218	2438	9,85E-02	9,92E-02
2217	2438	9,85E-02	9,92E-02
2219	2439	6,08E-02	6,55E-02
2224	2439	6,08E-02	6,55E-02
2223	2439	6,08E-02	6,55E-02
2218	2439	6,08E-02	6,55E-02
2727	2828	1,28E-01	1,33E-01
2722	2828	1,28E-01	1,33E-01
2721	2828	1,28E-01	1,33E-01
2726	2828	1,28E-01	1,33E-01
2728	2829	2,08E-01	2,20E-01
2727	2829	2,08E-01	2,20E-01
2723	2829	2,08E-01	2,20E-01
2722	2829	2,08E-01	2,20E-01
2728	2830	2,80E-01	3,00E-01
2723	2830	2,80E-01	3,00E-01
2729	2830	2,80E-01	3,00E-01
2724	2830	2,80E-01	3,00E-01
2724	2831	3,30E-01	3,48E-01
2725	2831	3,30E-01	3,48E-01
2730	2831	3,30E-01	3,48E-01
2729	2831	3,30E-01	3,48E-01
2726	2832	1,43E-01	1,48E-01
2727	2832	1,43E-01	1,48E-01
2732	2832	1,43E-01	1,48E-01
2731	2832	1,43E-01	1,48E-01
2732	2833	2,32E-01	2,37E-01
2728	2833	2,32E-01	2,37E-01
2733	2833	2,32E-01	2,37E-01
2727	2833	2,32E-01	2,37E-01
2734	2834	3,08E-01	3,21E-01
2733	2834	3,08E-01	3,21E-01
2728	2834	3,08E-01	3,21E-01
2729	2834	3,08E-01	3,21E-01
2729	2835	3,55E-01	3,66E-01
2734	2835	3,55E-01	3,66E-01
2730	2835	3,55E-01	3,66E-01
2735	2835	3,55E-01	3,66E-01
2731	2836	1,59E-01	1,53E-01
2737	2836	1,59E-01	1,53E-01
2732	2836	1,59E-01	1,53E-01
2736	2836	1,59E-01	1,53E-01
2732	2837	2,68E-01	2,46E-01
2738	2837	2,68E-01	2,46E-01
2737	2837	2,68E-01	2,46E-01
2733	2837	2,68E-01	2,46E-01
2734	2838	3,53E-01	3,25E-01
2738	2838	3,53E-01	3,25E-01
2739	2838	3,53E-01	3,25E-01
2733	2838	3,53E-01	3,25E-01
2734	2839	3,99E-01	3,73E-01
2739	2839	3,99E-01	3,73E-01
2740	2839	3,99E-01	3,73E-01
2735	2839	3,99E-01	3,73E-01
2737	2840	1,53E-01	1,51E-01
2741	2840	1,53E-01	1,51E-01
2736	2840	1,53E-01	1,51E-01
2742	2840	1,53E-01	1,51E-01
2743	2841	2,52E-01	2,51E-01
2737	2841	2,52E-01	2,51E-01
2738	2841	2,52E-01	2,51E-01
2742	2841	2,52E-01	2,51E-01
2743	2842	3,35E-01	3,40E-01
2744	2842	3,35E-01	3,40E-01
2738	2842	3,35E-01	3,40E-01
2739	2842	3,35E-01	3,40E-01
2744	2843	3,97E-01	4,05E-01
2739	2843	3,97E-01	4,05E-01
2740	2843	3,97E-01	4,05E-01
2745	2843	3,97E-01	4,05E-01
2764	2854	2,58E-01	2,59E-01
2765	2854	2,58E-01	2,59E-01
2769	2854	2,58E-01	2,59E-01
2770	2854	2,58E-01	2,59E-01
2771	2855	2,39E-01	2,34E-01
2765	2855	2,39E-01	2,34E-01
2770	2855	2,39E-01	2,34E-01
2766	2855	2,39E-01	2,34E-01
2772	2856	2,22E-01	2,15E-01
2766	2856	2,22E-01	2,15E-01
2767	2856	2,22E-01	2,15E-01
2771	2856	2,22E-01	2,15E-01
2772	2857	2,03E-01	1,98E-01
2767	2857	2,03E-01	1,98E-01
2768	2857	2,03E-01	1,98E-01
2773	2857	2,03E-01	1,98E-01
2769	2858	2,33E-01	2,08E-01
2775	2858	2,33E-01	2,08E-01
2770	2858	2,33E-01	2,08E-01
2774	2858	2,33E-01	2,08E-01
2776	2859	2,33E-01	2,15E-01
2775	2859	2,33E-01	2,15E-01
2771	2859	2,33E-01	2,15E-01
2770	2859	2,33E-01	2,15E-01
2771	2860	2,16E-01	2,04E-01
2776	2860	2,16E-01	2,04E-01
2772	2860	2,16E-01	2,04E-01
2777	2860	2,16E-01	2,04E-01
2773	2861	2,01E-01	1,98E-01
2772	2861	2,01E-01	1,98E-01
2778	2861	2,01E-01	1,98E-01
2777	2861	2,01E-01	1,98E-01
2774	2862	1,99E-01	2,38E-01
2780	2862	1,99E-01	2,38E-01
2775	2862	1,99E-01	2,38E-01
2779	2862	1,99E-01	2,38E-01
2775	2863	1,89E-01	2,27E-01
2781	2863	1,89E-01	2,27E-01
2780	2863	1,89E-01	2,27E-01
2776	2863	1,89E-01	2,27E-01
2781	2864	1,92E-01	2,08E-01
2777	2864	1,92E-01	2,08E-01
2782	2864	1,92E-01	2,08E-01
2776	2864	1,92E-01	2,08E-01
2782	2865	1,94E-01	1,98E-01
2777	2865	1,94E-01	1,98E-01
2783	2865	1,94E-01	1,98E-01
2778	2865	1,94E-01	1,98E-01
2785	2866	2,27E-01	2,27E-01
2784	2866	2,27E-01	2,27E-01
2779	2866	2,27E-01	2,27E-01
2780	2866	2,27E-01	2,27E-01
2785	2867	2,05E-01	2,03E-01
2780	2867	2,05E-01	2,03E-01
2781	2867	2,05E-01	2,03E-01
2786	2867	2,05E-01	2,03E-01
2787	2868	2,04E-01	1,97E-01
2786	2868	2,04E-01	1,97E-01
2781	2868	2,04E-01	1,97E-01
2782	2868	2,04E-01	1,97E-01
2782	2869	2,03E-01	1,97E-01
2783	2869	2,03E-01	1,97E-01
2787	2869	2,03E-01	1,97E-01
2788	2869	2,03E-01	1,97E-01
2789	2870	1,92E-01	1,82E-01
2790	2870	1,92E-01	1,82E-01
2785	2870	1,92E-01	1,82E-01
2784	2870	1,92E-01	1,82E-01
2786	2871	1,90E-01	1,79E-01
2790	2871	1,90E-01	1,79E-01
2791	2871	1,90E-01	1,79E-01
2785	2871	1,90E-01	1,79E-01
2787	2872	1,97E-01	1,87E-01
2786	2872	1,97E-01	1,87E-01
2792	2872	1,97E-01	1,87E-01
2791	2872	1,97E-01	1,87E-01
2788	2873	2,01E-01	1,98E-01
2793	2873	2,01E-01	1,98E-01
2787	2873	2,01E-01	1,98E-01
2792	2873	2,01E-01	1,98E-01
2794	2874	1,33E-01	1,47E-01
2789	2874	1,33E-01	1,47E-01
2790	2874	1,33E-01	1,47E-01
2795	2874	1,33E-01	1,47E-01
2796	2875	1,49E-01	1,61E-01
2791	2875	1,49E-01	1,61E-01
2795	2875	1,49E-01	1,61E-01
2790	2875	1,49E-01	1,61E-01
2791	2876	1,75E-01	1,81E-01
2797	2876	1,75E-01	1,81E-01
2796	2876	1,75E-01	1,81E-01
2792	2876	1,75E-01	1,81E-01
2792	2877	1,93E-01	1,95E-01
2798	2877	1,93E-01	1,95E-01
2793	2877	1,93E-01	1,95E-01
2797	2877	1,93E-01	1,95E-01
2795	2878	1,05E-01	9,75E-02
2800	2878	1,05E-01	9,75E-02
2799	2878	1,05E-01	9,75E-02
2794	2878	1,05E-01	9,75E-02
2800	2879	1,36E-01	1,31E-01
2795	2879	1,36E-01	1,31E-01
2801	2879	1,36E-01	1,31E-01
2796	2879	1,36E-01	1,31E-01
2797	2880	1,69E-01	1,69E-01
2801	2880	1,69E-01	1,69E-01
2802	2880	1,69E-01	1,69E-01
2796	2880	1,69E-01	1,69E-01
2803	2881	1,92E-01	1,91E-01
2802	2881	1,92E-01	1,91E-01
2797	2881	1,92E-01	1,91E-01
2798	2881	1,92E-01	1,91E-01
2800	2882	6,94E-02	7,18E-02
2804	2882	6,94E-02	7,18E-02
2805	2882	6,94E-02	7,18E-02
2799	2882	6,94E-02	7,18E-02
2801	2883	1,20E-01	1,23E-01
2805	2883	1,20E-01	1,23E-01
2806	2883	1,20E-01	1,23E-01
2800	2883	1,20E-01	1,23E-01
2807	2884	1,61E-01	1,64E-01
2801	2884	1,61E-01	1,64E-01
2806	2884	1,61E-01	1,64E-01
2802	2884	1,61E-01	1,64E-01
2808	2885	1,90E-01	1,89E-01
2802	2885	1,90E-01	1,89E-01
2803	2885	1,90E-01	1,89E-01
2807	2885	1,90E-01	1,89E-01
2810	2886	5,90E-02	6,78E-02
2804	2886	5,90E-02	6,78E-02
2809	2886	5,90E-02	6,78E-02
2805	2886	5,90E-02	6,78E-02
2811	2887	1,13E-01	1,17E-01
2806	2887	1,13E-01	1,17E-01
2805	2887	1,13E-01	1,17E-01
2810	2887	1,13E-01	1,17E-01
2812	2888	1,56E-01	1,58E-01
2806	2888	1,56E-01	1,58E-01
2807	2888	1,56E-01	1,58E-01
2811	2888	1,56E-01	1,58E-01
2812	2889	1,89E-01	1,87E-01
2813	2889	1,89E-01	1,87E-01
2808	2889	1,89E-01	1,87E-01
2807	2889	1,89E-01	1,87E-01
2814	2890	6,08E-02	6,55E-02
2815	2890	6,08E-02	6,55E-02
2810	2890	6,08E-02	6,55E-02
2809	2890	6,08E-02	6,55E-02
2816	2891	9,85E-02	9,92E-02
2810	2891	9,85E-02	9,92E-02
2811	2891	9,85E-02	9,92E-02
2815	2891	9,85E-02	9,92E-02
2816	2892	1,30E-01	1,30E-01
2817	2892	1,30E-01	1,30E-01
2811	2892	1,30E-01	1,30E-01
2812	2892	1,30E-01	1,30E-01
2817	2893	1,53E-01	1,53E-01
2813	2893	1,53E-01	1,53E-01
2818	2893	1,53E-01	1,53E-01
2812	2893	1,53E-01	1,53E-01
2858	2912	1,12E-14	1,16E-14
2853	2912	1,12E-14	1,16E-14
2852	2912	1,12E-14	1,16E-14
2857	2912	1,12E-14	1,16E-14
2854	2913	1,05E-14	1,07E-14
2853	2913	1,05E-14	1,07E-14
2858	2913	1,05E-14	1,07E-14
2859	2913	1,05E-14	1,07E-14
2854	2914	9,17E-15	8,31E-15
2860	2914	9,17E-15	8,31E-15
2859	2914	9,17E-15	8,31E-15
2855	2914	9,17E-15	8,31E-15
2856	2915	9,00E-15	8,85E-15
2860	2915	9,00E-15	8,85E-15
2861	2915	9,00E-15	8,85E-15
2855	2915	9,00E-15	8,85E-15
2858	2916	1,31E-14	1,24E-14
2863	2916	1,31E-14	1,24E-14
2862	2916	1,31E-14	1,24E-14
2857	2916	1,31E-14	1,24E-14
2858	2917	1,46E-14	1,46E-14
2864	2917	1,46E-14	1,46E-14
2863	2917	1,46E-14	1,46E-14
2859	2917	1,46E-14	1,46E-14
2859	2918	1,14E-14	1,12E-14
2860	2918	1,14E-14	1,12E-14
2865	2918	1,14E-14	1,12E-14
2864	2918	1,14E-14	1,12E-14
2865	2919	1,10E-14	1,07E-14
2866	2919	1,10E-14	1,07E-14
2861	2919	1,10E-14	1,07E-14
2860	2919	1,10E-14	1,07E-14
2863	2920	1,12E-14	1,09E-14
2862	2920	1,12E-14	1,09E-14
2868	2920	1,12E-14	1,09E-14
2867	2920	1,12E-14	1,09E-14
2863	2921	1,18E-14	1,13E-14
2864	2921	1,18E-14	1,13E-14
2868	2921	1,18E-14	1,13E-14
2869	2921	1,18E-14	1,13E-14
2865	2922	9,64E-15	1,07E-14
2870	2922	9,64E-15	1,07E-14
2869	2922	9,64E-15	1,07E-14
2864	2922	9,64E-15	1,07E-14
2871	2923	9,37E-15	9,37E-15
2870	2923	9,37E-15	9,37E-15
2865	2923	9,37E-15	9,37E-15
2866	2923	9,37E-15	9,37E-15
2868	2924	6,88E-15	7,06E-15
2867	2924	6,88E-15	7,06E-15
2873	2924	6,88E-15	7,06E-15
2872	2924	6,88E-15	7,06E-15
2873	2925	4,71E-15	4,59E-15
2868	2925	4,71E-15	4,59E-15
2869	2925	4,71E-15	4,59E-15
2874	2925	4,71E-15	4,59E-15
2875	2926	4,54E-15	5,04E-15
2870	2926	4,54E-15	5,04E-15
2874	2926	4,54E-15	5,04E-15
2869	2926	4,54E-15	5,04E-15
2870	2927	5,03E-15	5,13E-15
2876	2927	5,03E-15	5,13E-15
2871	2927	5,03E-15	5,13E-15
2875	2927	5,03E-15	5,13E-15
2877	2928	6,20E-15	6,04E-15
2873	2928	6,20E-15	6,04E-15
2878	2928	6,20E-15	6,04E-15
2872	2928	6,20E-15	6,04E-15
2873	2929	7,90E-15	8,15E-15
2874	2929	7,90E-15	8,15E-15
2879	2929	7,90E-15	8,15E-15
2878	2929	7,90E-15	8,15E-15
2879	2930	9,29E-15	9,78E-15
2880	2930	9,29E-15	9,78E-15
2874	2930	9,29E-15	9,78E-15
2875	2930	9,29E-15	9,78E-15
2876	2931	8,04E-15	8,92E-15
2881	2931	8,04E-15	8,92E-15
2880	2931	8,04E-15	8,92E-15
2875	2931	8,04E-15	8,92E-15
3192	3177	8,61E-15	8,05E-15
3187	3177	8,61E-15	8,05E-15
3188	3177	8,61E-15	8,05E-15
3193	3177	8,61E-15	8,05E-15
3193	3178	8,19E-15	6,05E-15
3189	3178	8,19E-15	6,05E-15
3188	3178	8,19E-15	6,05E-15
3194	3178	8,19E-15	6,05E-15
3194	3179	9,75E-15	9,75E-15
3190	3179	9,75E-15	9,75E-15
3195	3179	9,75E-15	9,75E-15
3189	3179	9,75E-15	9,75E-15
3195	3180	1,55E-14	1,62E-14
3196	3180	1,55E-14	1,62E-14
3190	3180	1,55E-14	1,62E-14
3191	3180	1,55E-14	1,62E-14
3198	3181	9,05E-15	9,21E-15
3193	3181	9,05E-15	9,21E-15
3197	3181	9,05E-15	9,21E-15
3192	3181	9,05E-15	9,21E-15
3194	3182	8,54E-15	8,68E-15
3198	3182	8,54E-15	8,68E-15
3193	3182	8,54E-15	8,68E-15
3199	3182	8,54E-15	8,68E-15
3199	3183	9,66E-15	1,13E-14
3194	3183	9,66E-15	1,13E-14
3200	3183	9,66E-15	1,13E-14
3195	3183	9,66E-15	1,13E-14
3200	3184	1,17E-14	1,27E-14
3201	3184	1,17E-14	1,27E-14
3195	3184	1,17E-14	1,27E-14
3196	3184	1,17E-14	1,27E-14
3203	3185	6,11E-15	5,78E-15
3202	3185	6,11E-15	5,78E-15
3197	3185	6,11E-15	5,78E-15
3198	3185	6,11E-15	5,78E-15
3199	3186	7,72E-15	8,58E-15
3203	3186	7,72E-15	8,58E-15
3204	3186	7,72E-15	8,58E-15
3198	3186	7,72E-15	8,58E-15
3204	3187	1,14E-14	1,27E-14
3199	3187	1,14E-14	1,27E-14
3200	3187	1,14E-14	1,27E-14
3205	3187	1,14E-14	1,27E-14
3205	3188	1,21E-14	1,22E-14
3200	3188	1,21E-14	1,22E-14
3201	3188	1,21E-14	1,22E-14
3206	3188	1,21E-14	1,22E-14
3203	3189	5,86E-15	6,32E-15
3208	3189	5,86E-15	6,32E-15
3202	3189	5,86E-15	6,32E-15
3207	3189	5,86E-15	6,32E-15
3203	3190	1,09E-14	1,08E-14
3204	3190	1,09E-14	1,08E-14
3208	3190	1,09E-14	1,08E-14
3209	3190	1,09E-14	1,08E-14
3205	3191	1,46E-14	1,39E-14
3209	3191	1,46E-14	1,39E-14
3210	3191	1,46E-14	1,39E-14
3204	3191	1,46E-14	1,39E-14
3210	3192	1,40E-14	1,43E-14
3206	3192	1,40E-14	1,43E-14
3205	3192	1,40E-14	1,43E-14
3211	3192	1,40E-14	1,43E-14
3213	3193	9,50E-15	9,76E-15
3212	3193	9,50E-15	9,76E-15
3207	3193	9,50E-15	9,76E-15
3208	3193	9,50E-15	9,76E-15
3214	3194	1,15E-14	1,03E-14
3208	3194	1,15E-14	1,03E-14
3213	3194	1,15E-14	1,03E-14
3209	3194	1,15E-14	1,03E-14
3214	3195	1,05E-14	9,47E-15
3209	3195	1,05E-14	9,47E-15
3210	3195	1,05E-14	9,47E-15
3215	3195	1,05E-14	9,47E-15
3215	3196	1,21E-14	1,25E-14
3210	3196	1,21E-14	1,25E-14
3211	3196	1,21E-14	1,25E-14
3216	3196	1,21E-14	1,25E-14
2030	2	2,07E-02	2,05E-02
841	2	2,07E-02	2,05E-02
981	3	3,22E-01	3,10E-01
2129	3	3,22E-01	3,10E-01
963	5	2,07E-02	2,05E-02
859	5	2,07E-02	2,05E-02
978	6	1,22E-15	1,71E-15
856	9	6,11E-15	5,64E-15
2225	11	3,22E-01	3,10E-01
958	11	3,22E-01	3,10E-01
861	13	2,06E-02	2,04E-02
2028	13	2,06E-02	2,04E-02
843	13	2,06E-02	2,04E-02
961	13	2,06E-02	2,04E-02
976	14	2,95E-15	2,66E-15
858	14	2,95E-15	2,66E-15
2227	15	7,63E-02	7,66E-02
960	15	7,63E-02	7,66E-02
2127	15	7,63E-02	7,66E-02
979	15	7,63E-02	7,66E-02
2839	16	3,94E-01	3,84E-01
993	16	3,94E-01	3,84E-01
991	17	1,26E-01	1,27E-01
2239	17	1,26E-01	1,27E-01
2837	17	1,26E-01	1,27E-01
2132	17	1,26E-01	1,27E-01
2130	20	3,94E-01	3,84E-01
2237	20	3,94E-01	3,84E-01
2242	21	2,76E-01	2,65E-01
2851	21	2,76E-01	2,65E-01
2882	23	2,76E-01	2,65E-01
2142	23	2,76E-01	2,65E-01
2849	25	2,06E-01	2,06E-01
2884	25	2,06E-01	2,06E-01
2144	25	2,06E-01	2,06E-01
2240	25	2,06E-01	2,06E-01
2746	26	5,04E-02	5,00E-02
2912	26	5,04E-02	5,00E-02
2272	28	5,04E-02	5,00E-02
2821	28	5,04E-02	5,00E-02
2914	29	5,01E-02	4,98E-02
2819	29	5,01E-02	4,98E-02
2748	29	5,01E-02	4,98E-02
2270	29	5,01E-02	4,98E-02
2836	31	4,04E-15	4,37E-15
2763	33	2,72E-15	2,90E-15
2834	33	2,72E-15	2,90E-15
2761	34	4,19E-15	4,23E-15
2033	51	5,00E-02	5,00E-02
2030	51	5,00E-02	5,00E-02
2036	52	5,71E-02	5,85E-02
2033	52	5,71E-02	5,85E-02
2036	53	5,67E-02	5,83E-02
2039	53	5,67E-02	5,83E-02
2039	54	6,35E-02	6,39E-02
2042	54	6,35E-02	6,39E-02
2042	55	7,35E-02	7,33E-02
2045	55	7,35E-02	7,33E-02
2048	56	8,70E-02	8,67E-02
2045	56	8,70E-02	8,67E-02
2051	57	1,07E-01	1,04E-01
2048	57	1,07E-01	1,04E-01
2054	58	9,53E-02	9,05E-02
2051	58	9,53E-02	9,05E-02
2057	59	8,32E-02	8,28E-02
2054	59	8,32E-02	8,28E-02
2057	60	1,01E-01	1,04E-01
2060	60	1,01E-01	1,04E-01
2060	61	1,16E-01	1,16E-01
2063	61	1,16E-01	1,16E-01
2063	62	1,33E-01	1,33E-01
2066	62	1,33E-01	1,33E-01
2069	63	1,55E-01	1,50E-01
2066	63	1,55E-01	1,50E-01
2069	64	1,41E-01	1,30E-01
2072	64	1,41E-01	1,30E-01
2075	65	1,28E-01	1,25E-01
2072	65	1,28E-01	1,25E-01
2075	66	1,49E-01	1,52E-01
2078	66	1,49E-01	1,52E-01
2078	67	1,66E-01	1,66E-01
2081	67	1,66E-01	1,66E-01
2081	68	1,81E-01	1,80E-01
2084	68	1,81E-01	1,80E-01
2084	69	1,99E-01	1,98E-01
2087	69	1,99E-01	1,98E-01
2087	70	2,20E-01	2,14E-01
2090	70	2,20E-01	2,14E-01
2090	71	2,04E-01	1,87E-01
2093	71	2,04E-01	1,87E-01
2096	72	1,89E-01	1,84E-01
2093	72	1,89E-01	1,84E-01
2096	73	2,12E-01	2,16E-01
2099	73	2,12E-01	2,16E-01
2102	74	2,30E-01	2,29E-01
2099	74	2,30E-01	2,29E-01
2102	75	2,45E-01	2,44E-01
2105	75	2,45E-01	2,44E-01
2105	76	2,63E-01	2,63E-01
2108	76	2,63E-01	2,63E-01
2111	77	2,84E-01	2,75E-01
2108	77	2,84E-01	2,75E-01
2111	78	2,67E-01	2,45E-01
2114	78	2,67E-01	2,45E-01
2114	79	2,54E-01	2,48E-01
2117	79	2,54E-01	2,48E-01
2120	80	2,79E-01	2,84E-01
2117	80	2,79E-01	2,84E-01
2123	81	2,96E-01	2,95E-01
2120	81	2,96E-01	2,95E-01
2123	82	3,15E-01	3,17E-01
2126	82	3,15E-01	3,17E-01
2126	83	3,36E-01	3,26E-01
2129	83	3,36E-01	3,26E-01
966	147	3,08E-15	4,74E-15
963	147	3,08E-15	4,74E-15
969	148	4,34E-15	5,33E-15
966	148	4,34E-15	5,33E-15
972	149	3,31E-15	3,89E-15
969	149	3,31E-15	3,89E-15
972	150	2,33E-15	2,96E-15
975	150	2,33E-15	2,96E-15
975	151	2,62E-15	3,10E-15
978	151	2,62E-15	3,10E-15
841	176	3,80E-15	3,05E-15
844	176	3,80E-15	3,05E-15
847	177	4,00E-15	4,10E-15
844	177	4,00E-15	4,10E-15
847	178	3,19E-15	3,02E-15
850	178	3,19E-15	3,02E-15
853	179	2,79E-15	2,31E-15
850	179	2,79E-15	2,31E-15
856	180	5,02E-15	4,76E-15
853	180	5,02E-15	4,76E-15
859	194	5,00E-02	5,00E-02
862	194	5,00E-02	5,00E-02
865	195	5,71E-02	5,85E-02
862	195	5,71E-02	5,85E-02
865	196	5,67E-02	5,83E-02
868	196	5,67E-02	5,83E-02
868	197	6,35E-02	6,39E-02
871	197	6,35E-02	6,39E-02
871	198	7,35E-02	7,33E-02
874	198	7,35E-02	7,33E-02
874	199	8,70E-02	8,67E-02
877	199	8,70E-02	8,67E-02
877	200	1,07E-01	1,04E-01
880	200	1,07E-01	1,04E-01
883	201	9,53E-02	9,05E-02
880	201	9,53E-02	9,05E-02
886	202	8,32E-02	8,28E-02
883	202	8,32E-02	8,28E-02
886	203	1,01E-01	1,04E-01
889	203	1,01E-01	1,04E-01
892	204	1,16E-01	1,16E-01
889	204	1,16E-01	1,16E-01
892	205	1,33E-01	1,33E-01
895	205	1,33E-01	1,33E-01
895	206	1,55E-01	1,50E-01
898	206	1,55E-01	1,50E-01
898	207	1,41E-01	1,30E-01
901	207	1,41E-01	1,30E-01
901	208	1,28E-01	1,25E-01
904	208	1,28E-01	1,25E-01
904	209	1,49E-01	1,52E-01
907	209	1,49E-01	1,52E-01
910	210	1,66E-01	1,66E-01
907	210	1,66E-01	1,66E-01
913	211	1,81E-01	1,80E-01
910	211	1,81E-01	1,80E-01
913	212	1,99E-01	1,98E-01
916	212	1,99E-01	1,98E-01
916	213	2,20E-01	2,14E-01
919	213	2,20E-01	2,14E-01
919	214	2,04E-01	1,87E-01
922	214	2,04E-01	1,87E-01
925	215	1,89E-01	1,84E-01
922	215	1,89E-01	1,84E-01
928	216	2,12E-01	2,16E-01
925	216	2,12E-01	2,16E-01
931	217	2,30E-01	2,29E-01
928	217	2,30E-01	2,29E-01
934	218	2,45E-01	2,44E-01
931	218	2,45E-01	2,44E-01
934	219	2,63E-01	2,63E-01
937	219	2,63E-01	2,63E-01
937	220	2,84E-01	2,75E-01
940	220	2,84E-01	2,75E-01
943	221	2,67E-01	2,45E-01
940	221	2,67E-01	2,45E-01
946	222	2,54E-01	2,48E-01
943	222	2,54E-01	2,48E-01
946	223	2,79E-01	2,84E-01
949	223	2,79E-01	2,84E-01
949	224	2,96E-01	2,95E-01
952	224	2,96E-01	2,95E-01
955	225	3,15E-01	3,17E-01
952	225	3,15E-01	3,17E-01
958	226	3,36E-01	3,26E-01
955	226	3,36E-01	3,26E-01
842	264	2,06E-02	2,05E-02
2030	264	2,06E-02	2,05E-02
841	264	2,06E-02	2,05E-02
2029	264	2,06E-02	2,05E-02
843	265	2,06E-02	2,04E-02
2029	265	2,06E-02	2,04E-02
2028	265	2,06E-02	2,04E-02
842	265	2,06E-02	2,04E-02
846	266	2,78E-15	2,64E-15
964	266	2,78E-15	2,64E-15
961	266	2,78E-15	2,64E-15
843	266	2,78E-15	2,64E-15
964	267	1,97E-15	1,99E-15
846	267	1,97E-15	1,99E-15
967	267	1,97E-15	1,99E-15
849	267	1,97E-15	1,99E-15
967	268	3,14E-15	3,29E-15
852	268	3,14E-15	3,29E-15
970	268	3,14E-15	3,29E-15
849	268	3,14E-15	3,29E-15
855	269	4,26E-15	4,30E-15
973	269	4,26E-15	4,30E-15
970	269	4,26E-15	4,30E-15
852	269	4,26E-15	4,30E-15
858	270	3,70E-15	3,62E-15
855	270	3,70E-15	3,62E-15
976	270	3,70E-15	3,62E-15
973	270	3,70E-15	3,62E-15
858	271	2,39E-15	2,84E-15
857	271	2,39E-15	2,84E-15
856	272	4,96E-15	5,09E-15
857	272	4,96E-15	5,09E-15
860	273	2,06E-02	2,05E-02
962	273	2,06E-02	2,05E-02
963	273	2,06E-02	2,05E-02
859	273	2,06E-02	2,05E-02
962	274	2,06E-02	2,04E-02
861	274	2,06E-02	2,04E-02
860	274	2,06E-02	2,04E-02
961	274	2,06E-02	2,04E-02
864	275	6,15E-02	6,08E-02
2028	275	6,15E-02	6,08E-02
861	275	6,15E-02	6,08E-02
2031	275	6,15E-02	6,08E-02
864	276	8,41E-02	8,26E-02
2031	276	8,41E-02	8,26E-02
867	276	8,41E-02	8,26E-02
2034	276	8,41E-02	8,26E-02
2034	277	8,87E-02	8,69E-02
2037	277	8,87E-02	8,69E-02
867	277	8,87E-02	8,69E-02
870	277	8,87E-02	8,69E-02
2040	278	9,18E-02	9,09E-02
873	278	9,18E-02	9,09E-02
2037	278	9,18E-02	9,09E-02
870	278	9,18E-02	9,09E-02
876	279	9,25E-02	9,33E-02
873	279	9,25E-02	9,33E-02
2043	279	9,25E-02	9,33E-02
2040	279	9,25E-02	9,33E-02
876	280	8,89E-02	9,10E-02
879	280	8,89E-02	9,10E-02
2043	280	8,89E-02	9,10E-02
2046	280	8,89E-02	9,10E-02
2049	281	8,09E-02	8,24E-02
882	281	8,09E-02	8,24E-02
2046	281	8,09E-02	8,24E-02
879	281	8,09E-02	8,24E-02
882	282	8,29E-02	8,20E-02
2052	282	8,29E-02	8,20E-02
2049	282	8,29E-02	8,20E-02
885	282	8,29E-02	8,20E-02
888	283	8,94E-02	8,59E-02
885	283	8,94E-02	8,59E-02
2052	283	8,94E-02	8,59E-02
2055	283	8,94E-02	8,59E-02
2055	284	9,14E-02	8,78E-02
891	284	9,14E-02	8,78E-02
2058	284	9,14E-02	8,78E-02
888	284	9,14E-02	8,78E-02
891	285	9,42E-02	9,46E-02
2058	285	9,42E-02	9,46E-02
894	285	9,42E-02	9,46E-02
2061	285	9,42E-02	9,46E-02
897	286	9,07E-02	9,48E-02
2061	286	9,07E-02	9,48E-02
2064	286	9,07E-02	9,48E-02
894	286	9,07E-02	9,48E-02
2064	287	8,05E-02	8,37E-02
2067	287	8,05E-02	8,37E-02
900	287	8,05E-02	8,37E-02
897	287	8,05E-02	8,37E-02
903	288	8,48E-02	8,32E-02
2067	288	8,48E-02	8,32E-02
900	288	8,48E-02	8,32E-02
2070	288	8,48E-02	8,32E-02
903	289	9,39E-02	8,75E-02
906	289	9,39E-02	8,75E-02
2070	289	9,39E-02	8,75E-02
2073	289	9,39E-02	8,75E-02
909	290	9,39E-02	8,72E-02
2076	290	9,39E-02	8,72E-02
906	290	9,39E-02	8,72E-02
2073	290	9,39E-02	8,72E-02
2079	291	9,65E-02	9,41E-02
2076	291	9,65E-02	9,41E-02
909	291	9,65E-02	9,41E-02
912	291	9,65E-02	9,41E-02
915	292	9,90E-02	1,03E-01
2082	292	9,90E-02	1,03E-01
2079	292	9,90E-02	1,03E-01
912	292	9,90E-02	1,03E-01
2082	293	9,47E-02	1,02E-01
918	293	9,47E-02	1,02E-01
2085	293	9,47E-02	1,02E-01
915	293	9,47E-02	1,02E-01
918	294	8,20E-02	8,70E-02
2085	294	8,20E-02	8,70E-02
2088	294	8,20E-02	8,70E-02
921	294	8,20E-02	8,70E-02
2088	295	8,93E-02	8,69E-02
2091	295	8,93E-02	8,69E-02
921	295	8,93E-02	8,69E-02
924	295	8,93E-02	8,69E-02
924	296	1,01E-01	9,22E-02
2094	296	1,01E-01	9,22E-02
2091	296	1,01E-01	9,22E-02
927	296	1,01E-01	9,22E-02
927	297	9,91E-02	9,05E-02
2097	297	9,91E-02	9,05E-02
930	297	9,91E-02	9,05E-02
2094	297	9,91E-02	9,05E-02
933	298	1,02E-01	9,89E-02
2100	298	1,02E-01	9,89E-02
2097	298	1,02E-01	9,89E-02
930	298	1,02E-01	9,89E-02
933	299	1,05E-01	1,10E-01
2103	299	1,05E-01	1,10E-01
2100	299	1,05E-01	1,10E-01
936	299	1,05E-01	1,10E-01
939	300	1,00E-01	1,10E-01
2103	300	1,00E-01	1,10E-01
2106	300	1,00E-01	1,10E-01
936	300	1,00E-01	1,10E-01
2106	301	8,55E-02	9,15E-02
942	301	8,55E-02	9,15E-02
2109	301	8,55E-02	9,15E-02
939	301	8,55E-02	9,15E-02
2112	302	9,66E-02	9,34E-02
945	302	9,66E-02	9,34E-02
942	302	9,66E-02	9,34E-02
2109	302	9,66E-02	9,34E-02
2112	303	1,10E-01	1,00E-01
945	303	1,10E-01	1,00E-01
2115	303	1,10E-01	1,00E-01
948	303	1,10E-01	1,00E-01
951	304	1,07E-01	9,92E-02
2115	304	1,07E-01	9,92E-02
2118	304	1,07E-01	9,92E-02
948	304	1,07E-01	9,92E-02
2121	305	1,10E-01	1,14E-01
954	305	1,10E-01	1,14E-01
951	305	1,10E-01	1,14E-01
2118	305	1,10E-01	1,14E-01
2124	306	1,05E-01	1,16E-01
954	306	1,05E-01	1,16E-01
957	306	1,05E-01	1,16E-01
2121	306	1,05E-01	1,16E-01
2124	307	8,92E-02	9,51E-02
957	307	8,92E-02	9,51E-02
2127	307	8,92E-02	9,51E-02
960	307	8,92E-02	9,51E-02
959	308	1,30E-01	1,27E-01
2226	308	1,30E-01	1,27E-01
960	308	1,30E-01	1,27E-01
2227	308	1,30E-01	1,27E-01
2226	309	2,53E-01	2,44E-01
958	309	2,53E-01	2,44E-01
959	309	2,53E-01	2,44E-01
2225	309	2,53E-01	2,44E-01
978	310	3,25E-15	3,75E-15
977	310	3,25E-15	3,75E-15
976	311	5,11E-15	4,99E-15
977	311	5,11E-15	4,99E-15
2128	312	1,30E-01	1,27E-01
2127	312	1,30E-01	1,27E-01
979	312	1,30E-01	1,27E-01
980	312	1,30E-01	1,27E-01
980	313	2,53E-01	2,44E-01
981	313	2,53E-01	2,44E-01
2129	313	2,53E-01	2,44E-01
2128	313	2,53E-01	2,44E-01
981	314	3,01E-01	2,91E-01
984	314	3,01E-01	2,91E-01
984	315	3,22E-01	3,18E-01
987	315	3,22E-01	3,18E-01
990	316	3,54E-01	3,64E-01
987	316	3,54E-01	3,64E-01
990	317	3,75E-01	3,69E-01
993	317	3,75E-01	3,69E-01
2838	318	3,13E-01	3,05E-01
2839	318	3,13E-01	3,05E-01
993	318	3,13E-01	3,05E-01
992	318	3,13E-01	3,05E-01
2837	319	1,79E-01	1,77E-01
992	319	1,79E-01	1,77E-01
2838	319	1,79E-01	1,77E-01
991	319	1,79E-01	1,77E-01
991	320	9,33E-02	9,65E-02
988	320	9,33E-02	9,65E-02
2236	320	9,33E-02	9,65E-02
2239	320	9,33E-02	9,65E-02
2233	321	1,11E-01	1,14E-01
985	321	1,11E-01	1,14E-01
2236	321	1,11E-01	1,14E-01
988	321	1,11E-01	1,14E-01
985	322	1,24E-01	1,20E-01
2233	322	1,24E-01	1,20E-01
982	322	1,24E-01	1,20E-01
2230	322	1,24E-01	1,20E-01
982	323	1,00E-01	9,71E-02
2230	323	1,00E-01	9,71E-02
979	323	1,00E-01	9,71E-02
2227	323	1,00E-01	9,71E-02
2237	389	3,75E-01	3,69E-01
2234	389	3,75E-01	3,69E-01
2234	390	3,54E-01	3,64E-01
2231	390	3,54E-01	3,64E-01
2228	391	3,22E-01	3,18E-01
2231	391	3,22E-01	3,18E-01
2225	392	3,01E-01	2,91E-01
2228	392	3,01E-01	2,91E-01
2842	393	3,57E-01	3,56E-01
2839	393	3,57E-01	3,56E-01
2845	394	3,43E-01	3,36E-01
2842	394	3,43E-01	3,36E-01
2848	395	3,48E-01	3,49E-01
2845	395	3,48E-01	3,49E-01
2851	396	2,80E-01	2,81E-01
2848	396	2,80E-01	2,81E-01
2133	420	3,57E-01	3,56E-01
2130	420	3,57E-01	3,56E-01
2136	421	3,43E-01	3,36E-01
2133	421	3,43E-01	3,36E-01
2136	422	3,48E-01	3,49E-01
2139	422	3,48E-01	3,49E-01
2142	423	2,80E-01	2,81E-01
2139	423	2,80E-01	2,81E-01
2130	432	3,13E-01	3,05E-01
2237	432	3,13E-01	3,05E-01
2238	432	3,13E-01	3,05E-01
2131	432	3,13E-01	3,05E-01
2131	433	1,79E-01	1,77E-01
2132	433	1,79E-01	1,77E-01
2239	433	1,79E-01	1,77E-01
2238	433	1,79E-01	1,77E-01
2837	434	2,00E-01	2,00E-01
2840	434	2,00E-01	2,00E-01
2135	434	2,00E-01	2,00E-01
2132	434	2,00E-01	2,00E-01
2843	435	2,04E-01	2,04E-01
2840	435	2,04E-01	2,04E-01
2135	435	2,04E-01	2,04E-01
2138	435	2,04E-01	2,04E-01
2843	436	1,91E-01	1,90E-01
2846	436	1,91E-01	1,90E-01
2141	436	1,91E-01	1,90E-01
2138	436	1,91E-01	1,90E-01
2141	437	2,19E-01	2,19E-01
2846	437	2,19E-01	2,19E-01
2849	437	2,19E-01	2,19E-01
2144	437	2,19E-01	2,19E-01
2143	438	2,21E-01	2,19E-01
2144	438	2,21E-01	2,19E-01
2883	438	2,21E-01	2,19E-01
2884	438	2,21E-01	2,19E-01
2882	439	2,55E-01	2,49E-01
2883	439	2,55E-01	2,49E-01
2142	439	2,55E-01	2,49E-01
2143	439	2,55E-01	2,49E-01
2882	444	2,85E-01	2,86E-01
2885	444	2,85E-01	2,86E-01
2888	445	2,25E-01	2,26E-01
2885	445	2,25E-01	2,26E-01
2888	446	2,36E-01	2,27E-01
2891	446	2,36E-01	2,27E-01
2894	447	2,56E-01	2,51E-01
2891	447	2,56E-01	2,51E-01
2897	448	2,09E-01	2,09E-01
2894	448	2,09E-01	2,09E-01
2897	449	1,77E-01	1,77E-01
2900	449	1,77E-01	1,77E-01
2900	450	1,54E-01	1,55E-01
2903	450	1,54E-01	1,55E-01
2906	451	1,38E-01	1,42E-01
2903	451	1,38E-01	1,42E-01
2906	452	1,39E-01	1,42E-01
2909	452	1,39E-01	1,42E-01
2909	453	1,22E-01	1,22E-01
2912	453	1,22E-01	1,22E-01
2240	468	2,21E-01	2,19E-01
2849	468	2,21E-01	2,19E-01
2850	468	2,21E-01	2,19E-01
2241	468	2,21E-01	2,19E-01
2242	469	2,55E-01	2,49E-01
2851	469	2,55E-01	2,49E-01
2241	469	2,55E-01	2,49E-01
2850	469	2,55E-01	2,49E-01
2242	470	2,85E-01	2,86E-01
2245	470	2,85E-01	2,86E-01
2245	471	2,25E-01	2,26E-01
2248	471	2,25E-01	2,26E-01
2251	472	2,36E-01	2,27E-01
2248	472	2,36E-01	2,27E-01
2254	473	2,56E-01	2,51E-01
2251	473	2,56E-01	2,51E-01
2254	474	2,09E-01	2,09E-01
2257	474	2,09E-01	2,09E-01
2257	475	1,77E-01	1,77E-01
2260	475	1,77E-01	1,77E-01
2260	476	1,54E-01	1,55E-01
2263	476	1,54E-01	1,55E-01
2266	477	1,38E-01	1,42E-01
2263	477	1,38E-01	1,42E-01
2266	478	1,39E-01	1,42E-01
2269	478	1,39E-01	1,42E-01
2269	479	1,22E-01	1,22E-01
2272	479	1,22E-01	1,22E-01
2820	480	5,03E-02	4,99E-02
2271	480	5,03E-02	4,99E-02
2821	480	5,03E-02	4,99E-02
2272	480	5,03E-02	4,99E-02
2271	481	5,02E-02	4,98E-02
2820	481	5,02E-02	4,98E-02
2819	481	5,02E-02	4,98E-02
2270	481	5,02E-02	4,98E-02
2270	482	1,50E-01	1,48E-01
2914	482	1,50E-01	1,48E-01
2267	482	1,50E-01	1,48E-01
2911	482	1,50E-01	1,48E-01
2267	483	2,05E-01	2,01E-01
2264	483	2,05E-01	2,01E-01
2908	483	2,05E-01	2,01E-01
2911	483	2,05E-01	2,01E-01
2908	484	2,16E-01	2,12E-01
2261	484	2,16E-01	2,12E-01
2264	484	2,16E-01	2,12E-01
2905	484	2,16E-01	2,12E-01
2905	485	2,24E-01	2,21E-01
2261	485	2,24E-01	2,21E-01
2902	485	2,24E-01	2,21E-01
2258	485	2,24E-01	2,21E-01
2902	486	2,25E-01	2,27E-01
2258	486	2,25E-01	2,27E-01
2255	486	2,25E-01	2,27E-01
2899	486	2,25E-01	2,27E-01
2899	487	2,16E-01	2,21E-01
2252	487	2,16E-01	2,21E-01
2255	487	2,16E-01	2,21E-01
2896	487	2,16E-01	2,21E-01
2893	488	1,97E-01	2,01E-01
2896	488	1,97E-01	2,01E-01
2249	488	1,97E-01	2,01E-01
2252	488	1,97E-01	2,01E-01
2890	489	2,04E-01	2,06E-01
2893	489	2,04E-01	2,06E-01
2249	489	2,04E-01	2,06E-01
2246	489	2,04E-01	2,06E-01
2243	490	2,10E-01	2,11E-01
2246	490	2,10E-01	2,11E-01
2887	490	2,10E-01	2,11E-01
2890	490	2,10E-01	2,11E-01
2887	491	1,88E-01	1,87E-01
2240	491	1,88E-01	1,87E-01
2243	491	1,88E-01	1,87E-01
2884	491	1,88E-01	1,87E-01
2824	562	2,56E-15	2,28E-15
2821	562	2,56E-15	2,28E-15
2824	563	3,66E-15	2,83E-15
2827	563	3,66E-15	2,83E-15
2827	564	2,49E-15	2,81E-15
2830	564	2,49E-15	2,81E-15
2833	565	2,62E-15	3,98E-15
2830	565	2,62E-15	3,98E-15
2836	566	3,68E-15	4,21E-15
2833	566	3,68E-15	4,21E-15
2913	587	5,03E-02	4,99E-02
2912	587	5,03E-02	4,99E-02
2747	587	5,03E-02	4,99E-02
2746	587	5,03E-02	4,99E-02
2914	588	5,02E-02	4,98E-02
2748	588	5,02E-02	4,98E-02
2913	588	5,02E-02	4,98E-02
2747	588	5,02E-02	4,98E-02
2748	589	2,70E-15	2,73E-15
2822	589	2,70E-15	2,73E-15
2751	589	2,70E-15	2,73E-15
2819	589	2,70E-15	2,73E-15
2751	590	3,14E-15	3,04E-15
2754	590	3,14E-15	3,04E-15
2825	590	3,14E-15	3,04E-15
2822	590	3,14E-15	3,04E-15
2825	591	3,74E-15	3,47E-15
2828	591	3,74E-15	3,47E-15
2754	591	3,74E-15	3,47E-15
2757	591	3,74E-15	3,47E-15
2828	592	3,53E-15	3,48E-15
2760	592	3,53E-15	3,48E-15
2831	592	3,53E-15	3,48E-15
2757	592	3,53E-15	3,48E-15
2831	593	2,87E-15	2,88E-15
2760	593	2,87E-15	2,88E-15
2834	593	2,87E-15	2,88E-15
2763	593	2,87E-15	2,88E-15
2762	594	2,40E-15	2,33E-15
2763	594	2,40E-15	2,33E-15
2762	595	2,97E-15	3,06E-15
2761	595	2,97E-15	3,06E-15
2758	596	3,35E-15	4,25E-15
2761	596	3,35E-15	4,25E-15
2758	597	3,12E-15	3,32E-15
2755	597	3,12E-15	3,32E-15
2752	598	4,14E-15	3,07E-15
2755	598	4,14E-15	3,07E-15
2752	599	2,79E-15	3,04E-15
2749	599	2,79E-15	3,04E-15
2746	600	2,33E-15	2,50E-15
2749	600	2,33E-15	2,50E-15
2836	605	3,20E-15	3,14E-15
2835	605	3,20E-15	3,14E-15
2834	606	2,38E-15	2,47E-15
2835	606	2,38E-15	2,47E-15
844	1357	3,89E-15	3,64E-15
841	1357	3,89E-15	3,64E-15
842	1357	3,89E-15	3,64E-15
845	1357	3,89E-15	3,64E-15
846	1358	3,41E-15	3,68E-15
843	1358	3,41E-15	3,68E-15
842	1358	3,41E-15	3,68E-15
845	1358	3,41E-15	3,68E-15
844	1359	3,67E-15	3,82E-15
847	1359	3,67E-15	3,82E-15
848	1359	3,67E-15	3,82E-15
845	1359	3,67E-15	3,82E-15
845	1360	2,03E-15	2,30E-15
849	1360	2,03E-15	2,30E-15
848	1360	2,03E-15	2,30E-15
846	1360	2,03E-15	2,30E-15
850	1361	3,10E-15	2,97E-15
848	1361	3,10E-15	2,97E-15
851	1361	3,10E-15	2,97E-15
847	1361	3,10E-15	2,97E-15
849	1362	2,45E-15	2,85E-15
848	1362	2,45E-15	2,85E-15
852	1362	2,45E-15	2,85E-15
851	1362	2,45E-15	2,85E-15
853	1363	3,23E-15	2,89E-15
854	1363	3,23E-15	2,89E-15
851	1363	3,23E-15	2,89E-15
850	1363	3,23E-15	2,89E-15
854	1364	3,92E-15	4,09E-15
852	1364	3,92E-15	4,09E-15
851	1364	3,92E-15	4,09E-15
855	1364	3,92E-15	4,09E-15
857	1365	4,47E-15	4,56E-15
853	1365	4,47E-15	4,56E-15
854	1365	4,47E-15	4,56E-15
856	1365	4,47E-15	4,56E-15
858	1366	3,39E-15	3,72E-15
854	1366	3,39E-15	3,72E-15
857	1366	3,39E-15	3,72E-15
855	1366	3,39E-15	3,72E-15
859	1367	5,50E-02	5,46E-02
860	1367	5,50E-02	5,46E-02
862	1367	5,50E-02	5,46E-02
863	1367	5,50E-02	5,46E-02
863	1368	6,07E-02	6,00E-02
861	1368	6,07E-02	6,00E-02
864	1368	6,07E-02	6,00E-02
860	1368	6,07E-02	6,00E-02
866	1369	6,87E-02	6,86E-02
865	1369	6,87E-02	6,86E-02
863	1369	6,87E-02	6,86E-02
862	1369	6,87E-02	6,86E-02
863	1370	8,22E-02	8,07E-02
867	1370	8,22E-02	8,07E-02
864	1370	8,22E-02	8,07E-02
866	1370	8,22E-02	8,07E-02
865	1371	6,91E-02	6,96E-02
868	1371	6,91E-02	6,96E-02
869	1371	6,91E-02	6,96E-02
866	1371	6,91E-02	6,96E-02
867	1372	8,51E-02	8,38E-02
870	1372	8,51E-02	8,38E-02
866	1372	8,51E-02	8,38E-02
869	1372	8,51E-02	8,38E-02
871	1373	7,25E-02	7,29E-02
872	1373	7,25E-02	7,29E-02
868	1373	7,25E-02	7,29E-02
869	1373	7,25E-02	7,29E-02
872	1374	8,67E-02	8,64E-02
870	1374	8,67E-02	8,64E-02
869	1374	8,67E-02	8,64E-02
873	1374	8,67E-02	8,64E-02
874	1375	7,89E-02	7,89E-02
871	1375	7,89E-02	7,89E-02
875	1375	7,89E-02	7,89E-02
872	1375	7,89E-02	7,89E-02
873	1376	8,84E-02	8,88E-02
876	1376	8,84E-02	8,88E-02
875	1376	8,84E-02	8,88E-02
872	1376	8,84E-02	8,88E-02
877	1377	8,86E-02	8,88E-02
878	1377	8,86E-02	8,88E-02
874	1377	8,86E-02	8,88E-02
875	1377	8,86E-02	8,88E-02
875	1378	8,96E-02	9,10E-02
876	1378	8,96E-02	9,10E-02
878	1378	8,96E-02	9,10E-02
879	1378	8,96E-02	9,10E-02
878	1379	9,83E-02	9,77E-02
881	1379	9,83E-02	9,77E-02
880	1379	9,83E-02	9,77E-02
877	1379	9,83E-02	9,77E-02
881	1380	8,54E-02	8,66E-02
878	1380	8,54E-02	8,66E-02
879	1380	8,54E-02	8,66E-02
882	1380	8,54E-02	8,66E-02
884	1381	9,19E-02	8,82E-02
881	1381	9,19E-02	8,82E-02
883	1381	9,19E-02	8,82E-02
880	1381	9,19E-02	8,82E-02
881	1382	8,57E-02	8,39E-02
882	1382	8,57E-02	8,39E-02
885	1382	8,57E-02	8,39E-02
884	1382	8,57E-02	8,39E-02
887	1383	8,84E-02	8,63E-02
883	1383	8,84E-02	8,63E-02
886	1383	8,84E-02	8,63E-02
884	1383	8,84E-02	8,63E-02
885	1384	9,15E-02	8,78E-02
887	1384	9,15E-02	8,78E-02
888	1384	9,15E-02	8,78E-02
884	1384	9,15E-02	8,78E-02
887	1385	9,89E-02	1,00E-01
889	1385	9,89E-02	1,00E-01
890	1385	9,89E-02	1,00E-01
886	1385	9,89E-02	1,00E-01
890	1386	9,41E-02	9,25E-02
887	1386	9,41E-02	9,25E-02
891	1386	9,41E-02	9,25E-02
888	1386	9,41E-02	9,25E-02
889	1387	1,08E-01	1,09E-01
892	1387	1,08E-01	1,09E-01
890	1387	1,08E-01	1,09E-01
893	1387	1,08E-01	1,09E-01
890	1388	9,74E-02	9,86E-02
894	1388	9,74E-02	9,86E-02
893	1388	9,74E-02	9,86E-02
891	1388	9,74E-02	9,86E-02
895	1389	1,21E-01	1,22E-01
896	1389	1,21E-01	1,22E-01
893	1389	1,21E-01	1,22E-01
892	1389	1,21E-01	1,22E-01
897	1390	9,95E-02	1,03E-01
893	1390	9,95E-02	1,03E-01
896	1390	9,95E-02	1,03E-01
894	1390	9,95E-02	1,03E-01
899	1391	1,31E-01	1,30E-01
896	1391	1,31E-01	1,30E-01
898	1391	1,31E-01	1,30E-01
895	1391	1,31E-01	1,30E-01
900	1392	9,40E-02	9,63E-02
896	1392	9,40E-02	9,63E-02
897	1392	9,40E-02	9,63E-02
899	1392	9,40E-02	9,63E-02
898	1393	1,24E-01	1,15E-01
901	1393	1,24E-01	1,15E-01
899	1393	1,24E-01	1,15E-01
902	1393	1,24E-01	1,15E-01
902	1394	9,54E-02	9,14E-02
899	1394	9,54E-02	9,14E-02
903	1394	9,54E-02	9,14E-02
900	1394	9,54E-02	9,14E-02
904	1395	1,20E-01	1,15E-01
901	1395	1,20E-01	1,15E-01
905	1395	1,20E-01	1,15E-01
902	1395	1,20E-01	1,15E-01
903	1396	1,03E-01	9,66E-02
906	1396	1,03E-01	9,66E-02
902	1396	1,03E-01	9,66E-02
905	1396	1,03E-01	9,66E-02
907	1397	1,33E-01	1,35E-01
904	1397	1,33E-01	1,35E-01
908	1397	1,33E-01	1,35E-01
905	1397	1,33E-01	1,35E-01
906	1398	1,06E-01	1,03E-01
905	1398	1,06E-01	1,03E-01
909	1398	1,06E-01	1,03E-01
908	1398	1,06E-01	1,03E-01
908	1399	1,45E-01	1,46E-01
910	1399	1,45E-01	1,46E-01
911	1399	1,45E-01	1,46E-01
907	1399	1,45E-01	1,46E-01
912	1400	1,10E-01	1,10E-01
911	1400	1,10E-01	1,10E-01
909	1400	1,10E-01	1,10E-01
908	1400	1,10E-01	1,10E-01
914	1401	1,56E-01	1,56E-01
910	1401	1,56E-01	1,56E-01
911	1401	1,56E-01	1,56E-01
913	1401	1,56E-01	1,56E-01
914	1402	1,15E-01	1,18E-01
915	1402	1,15E-01	1,18E-01
912	1402	1,15E-01	1,18E-01
911	1402	1,15E-01	1,18E-01
916	1403	1,69E-01	1,72E-01
917	1403	1,69E-01	1,72E-01
913	1403	1,69E-01	1,72E-01
914	1403	1,69E-01	1,72E-01
917	1404	1,17E-01	1,23E-01
918	1404	1,17E-01	1,23E-01
915	1404	1,17E-01	1,23E-01
914	1404	1,17E-01	1,23E-01
916	1405	1,79E-01	1,76E-01
919	1405	1,79E-01	1,76E-01
917	1405	1,79E-01	1,76E-01
920	1405	1,79E-01	1,76E-01
917	1406	1,10E-01	1,13E-01
918	1406	1,10E-01	1,13E-01
921	1406	1,10E-01	1,13E-01
920	1406	1,10E-01	1,13E-01
920	1407	1,69E-01	1,55E-01
919	1407	1,69E-01	1,55E-01
922	1407	1,69E-01	1,55E-01
923	1407	1,69E-01	1,55E-01
924	1408	1,12E-01	1,05E-01
921	1408	1,12E-01	1,05E-01
923	1408	1,12E-01	1,05E-01
920	1408	1,12E-01	1,05E-01
922	1409	1,66E-01	1,59E-01
926	1409	1,66E-01	1,59E-01
923	1409	1,66E-01	1,59E-01
925	1409	1,66E-01	1,59E-01
923	1410	1,22E-01	1,13E-01
924	1410	1,22E-01	1,13E-01
927	1410	1,22E-01	1,13E-01
926	1410	1,22E-01	1,13E-01
926	1411	1,81E-01	1,84E-01
929	1411	1,81E-01	1,84E-01
925	1411	1,81E-01	1,84E-01
928	1411	1,81E-01	1,84E-01
927	1412	1,24E-01	1,21E-01
926	1412	1,24E-01	1,21E-01
929	1412	1,24E-01	1,21E-01
930	1412	1,24E-01	1,21E-01
932	1413	1,93E-01	1,95E-01
929	1413	1,93E-01	1,95E-01
928	1413	1,93E-01	1,95E-01
931	1413	1,93E-01	1,95E-01
929	1414	1,29E-01	1,30E-01
932	1414	1,29E-01	1,30E-01
933	1414	1,29E-01	1,30E-01
930	1414	1,29E-01	1,30E-01
932	1415	2,05E-01	2,06E-01
934	1415	2,05E-01	2,06E-01
935	1415	2,05E-01	2,06E-01
931	1415	2,05E-01	2,06E-01
932	1416	1,34E-01	1,39E-01
933	1416	1,34E-01	1,39E-01
935	1416	1,34E-01	1,39E-01
936	1416	1,34E-01	1,39E-01
937	1417	2,19E-01	2,22E-01
938	1417	2,19E-01	2,22E-01
934	1417	2,19E-01	2,22E-01
935	1417	2,19E-01	2,22E-01
935	1418	1,37E-01	1,45E-01
938	1418	1,37E-01	1,45E-01
936	1418	1,37E-01	1,45E-01
939	1418	1,37E-01	1,45E-01
940	1419	2,27E-01	2,23E-01
938	1419	2,27E-01	2,23E-01
941	1419	2,27E-01	2,23E-01
937	1419	2,27E-01	2,23E-01
939	1420	1,28E-01	1,31E-01
938	1420	1,28E-01	1,31E-01
942	1420	1,28E-01	1,31E-01
941	1420	1,28E-01	1,31E-01
943	1421	2,16E-01	1,97E-01
941	1421	2,16E-01	1,97E-01
940	1421	2,16E-01	1,97E-01
944	1421	2,16E-01	1,97E-01
945	1422	1,31E-01	1,22E-01
942	1422	1,31E-01	1,22E-01
941	1422	1,31E-01	1,22E-01
944	1422	1,31E-01	1,22E-01
947	1423	2,16E-01	2,07E-01
944	1423	2,16E-01	2,07E-01
943	1423	2,16E-01	2,07E-01
946	1423	2,16E-01	2,07E-01
945	1424	1,43E-01	1,34E-01
948	1424	1,43E-01	1,34E-01
947	1424	1,43E-01	1,34E-01
944	1424	1,43E-01	1,34E-01
946	1425	2,33E-01	2,38E-01
949	1425	2,33E-01	2,38E-01
947	1425	2,33E-01	2,38E-01
950	1425	2,33E-01	2,38E-01
948	1426	1,46E-01	1,46E-01
951	1426	1,46E-01	1,46E-01
947	1426	1,46E-01	1,46E-01
950	1426	1,46E-01	1,46E-01
952	1427	2,44E-01	2,48E-01
950	1427	2,44E-01	2,48E-01
949	1427	2,44E-01	2,48E-01
953	1427	2,44E-01	2,48E-01
950	1428	1,51E-01	1,58E-01
954	1428	1,51E-01	1,58E-01
953	1428	1,51E-01	1,58E-01
951	1428	1,51E-01	1,58E-01
955	1429	2,59E-01	2,64E-01
953	1429	2,59E-01	2,64E-01
952	1429	2,59E-01	2,64E-01
956	1429	2,59E-01	2,64E-01
954	1430	1,54E-01	1,64E-01
956	1430	1,54E-01	1,64E-01
953	1430	1,54E-01	1,64E-01
957	1430	1,54E-01	1,64E-01
959	1431	2,67E-01	2,61E-01
958	1431	2,67E-01	2,61E-01
956	1431	2,67E-01	2,61E-01
955	1431	2,67E-01	2,61E-01
960	1432	1,43E-01	1,46E-01
957	1432	1,43E-01	1,46E-01
959	1432	1,43E-01	1,46E-01
956	1432	1,43E-01	1,46E-01
962	1433	2,75E-15	2,83E-15
961	1433	2,75E-15	2,83E-15
964	1433	2,75E-15	2,83E-15
965	1433	2,75E-15	2,83E-15
966	1434	2,93E-15	4,13E-15
963	1434	2,93E-15	4,13E-15
962	1434	2,93E-15	4,13E-15
965	1434	2,93E-15	4,13E-15
965	1435	3,13E-15	2,88E-15
964	1435	3,13E-15	2,88E-15
967	1435	3,13E-15	2,88E-15
968	1435	3,13E-15	2,88E-15
969	1436	3,69E-15	4,07E-15
966	1436	3,69E-15	4,07E-15
965	1436	3,69E-15	4,07E-15
968	1436	3,69E-15	4,07E-15
968	1437	4,92E-15	4,10E-15
967	1437	4,92E-15	4,10E-15
971	1437	4,92E-15	4,10E-15
970	1437	4,92E-15	4,10E-15
969	1438	4,38E-15	4,15E-15
972	1438	4,38E-15	4,15E-15
968	1438	4,38E-15	4,15E-15
971	1438	4,38E-15	4,15E-15
971	1439	5,04E-15	4,61E-15
970	1439	5,04E-15	4,61E-15
973	1439	5,04E-15	4,61E-15
974	1439	5,04E-15	4,61E-15
972	1440	4,03E-15	4,14E-15
975	1440	4,03E-15	4,14E-15
971	1440	4,03E-15	4,14E-15
974	1440	4,03E-15	4,14E-15
974	1441	4,62E-15	4,57E-15
977	1441	4,62E-15	4,57E-15
976	1441	4,62E-15	4,57E-15
973	1441	4,62E-15	4,57E-15
975	1442	3,66E-15	4,03E-15
978	1442	3,66E-15	4,03E-15
977	1442	3,66E-15	4,03E-15
974	1442	3,66E-15	4,03E-15
979	1443	1,47E-01	1,41E-01
980	1443	1,47E-01	1,41E-01
982	1443	1,47E-01	1,41E-01
983	1443	1,47E-01	1,41E-01
983	1444	2,47E-01	2,38E-01
980	1444	2,47E-01	2,38E-01
984	1444	2,47E-01	2,38E-01
981	1444	2,47E-01	2,38E-01
983	1445	1,69E-01	1,66E-01
986	1445	1,69E-01	1,66E-01
982	1445	1,69E-01	1,66E-01
985	1445	1,69E-01	1,66E-01
984	1446	2,68E-01	2,64E-01
987	1446	2,68E-01	2,64E-01
983	1446	2,68E-01	2,64E-01
986	1446	2,68E-01	2,64E-01
985	1447	1,70E-01	1,80E-01
986	1447	1,70E-01	1,80E-01
988	1447	1,70E-01	1,80E-01
989	1447	1,70E-01	1,80E-01
990	1448	2,92E-01	3,05E-01
986	1448	2,92E-01	3,05E-01
987	1448	2,92E-01	3,05E-01
989	1448	2,92E-01	3,05E-01
988	1449	1,57E-01	1,61E-01
992	1449	1,57E-01	1,61E-01
991	1449	1,57E-01	1,61E-01
989	1449	1,57E-01	1,61E-01
992	1450	2,98E-01	2,97E-01
990	1450	2,98E-01	2,97E-01
993	1450	2,98E-01	2,97E-01
989	1450	2,98E-01	2,97E-01
2032	2310	6,07E-02	6,00E-02
2029	2310	6,07E-02	6,00E-02
2028	2310	6,07E-02	6,00E-02
2031	2310	6,07E-02	6,00E-02
2030	2311	5,50E-02	5,46E-02
2033	2311	5,50E-02	5,46E-02
2029	2311	5,50E-02	5,46E-02
2032	2311	5,50E-02	5,46E-02
2031	2312	8,22E-02	8,07E-02
2034	2312	8,22E-02	8,07E-02
2035	2312	8,22E-02	8,07E-02
2032	2312	8,22E-02	8,07E-02
2032	2313	6,87E-02	6,86E-02
2033	2313	6,87E-02	6,86E-02
2036	2313	6,87E-02	6,86E-02
2035	2313	6,87E-02	6,86E-02
2038	2314	8,51E-02	8,38E-02
2035	2314	8,51E-02	8,38E-02
2037	2314	8,51E-02	8,38E-02
2034	2314	8,51E-02	8,38E-02
2038	2315	6,91E-02	6,96E-02
2036	2315	6,91E-02	6,96E-02
2035	2315	6,91E-02	6,96E-02
2039	2315	6,91E-02	6,96E-02
2041	2316	8,67E-02	8,64E-02
2040	2316	8,67E-02	8,64E-02
2037	2316	8,67E-02	8,64E-02
2038	2316	8,67E-02	8,64E-02
2039	2317	7,25E-02	7,29E-02
2038	2317	7,25E-02	7,29E-02
2041	2317	7,25E-02	7,29E-02
2042	2317	7,25E-02	7,29E-02
2043	2318	8,84E-02	8,88E-02
2041	2318	8,84E-02	8,88E-02
2040	2318	8,84E-02	8,88E-02
2044	2318	8,84E-02	8,88E-02
2041	2319	7,89E-02	7,89E-02
2042	2319	7,89E-02	7,89E-02
2044	2319	7,89E-02	7,89E-02
2045	2319	7,89E-02	7,89E-02
2047	2320	8,96E-02	9,10E-02
2046	2320	8,96E-02	9,10E-02
2044	2320	8,96E-02	9,10E-02
2043	2320	8,96E-02	9,10E-02
2048	2321	8,86E-02	8,88E-02
2045	2321	8,86E-02	8,88E-02
2044	2321	8,86E-02	8,88E-02
2047	2321	8,86E-02	8,88E-02
2047	2322	8,54E-02	8,66E-02
2050	2322	8,54E-02	8,66E-02
2049	2322	8,54E-02	8,66E-02
2046	2322	8,54E-02	8,66E-02
2048	2323	9,83E-02	9,77E-02
2050	2323	9,83E-02	9,77E-02
2051	2323	9,83E-02	9,77E-02
2047	2323	9,83E-02	9,77E-02
2050	2324	8,57E-02	8,39E-02
2053	2324	8,57E-02	8,39E-02
2049	2324	8,57E-02	8,39E-02
2052	2324	8,57E-02	8,39E-02
2050	2325	9,19E-02	8,82E-02
2054	2325	9,19E-02	8,82E-02
2051	2325	9,19E-02	8,82E-02
2053	2325	9,19E-02	8,82E-02
2052	2326	9,15E-02	8,78E-02
2053	2326	9,15E-02	8,78E-02
2056	2326	9,15E-02	8,78E-02
2055	2326	9,15E-02	8,78E-02
2054	2327	8,84E-02	8,63E-02
2053	2327	8,84E-02	8,63E-02
2056	2327	8,84E-02	8,63E-02
2057	2327	8,84E-02	8,63E-02
2058	2328	9,41E-02	9,25E-02
2059	2328	9,41E-02	9,25E-02
2055	2328	9,41E-02	9,25E-02
2056	2328	9,41E-02	9,25E-02
2057	2329	9,89E-02	1,00E-01
2060	2329	9,89E-02	1,00E-01
2059	2329	9,89E-02	1,00E-01
2056	2329	9,89E-02	1,00E-01
2061	2330	9,74E-02	9,86E-02
2062	2330	9,74E-02	9,86E-02
2058	2330	9,74E-02	9,86E-02
2059	2330	9,74E-02	9,86E-02
2063	2331	1,08E-01	1,09E-01
2059	2331	1,08E-01	1,09E-01
2062	2331	1,08E-01	1,09E-01
2060	2331	1,08E-01	1,09E-01
2062	2332	9,95E-02	1,03E-01
2061	2332	9,95E-02	1,03E-01
2065	2332	9,95E-02	1,03E-01
2064	2332	9,95E-02	1,03E-01
2062	2333	1,21E-01	1,22E-01
2066	2333	1,21E-01	1,22E-01
2063	2333	1,21E-01	1,22E-01
2065	2333	1,21E-01	1,22E-01
2065	2334	9,40E-02	9,63E-02
2068	2334	9,40E-02	9,63E-02
2064	2334	9,40E-02	9,63E-02
2067	2334	9,40E-02	9,63E-02
2069	2335	1,31E-01	1,30E-01
2065	2335	1,31E-01	1,30E-01
2066	2335	1,31E-01	1,30E-01
2068	2335	1,31E-01	1,30E-01
2068	2336	9,54E-02	9,14E-02
2071	2336	9,54E-02	9,14E-02
2067	2336	9,54E-02	9,14E-02
2070	2336	9,54E-02	9,14E-02
2072	2337	1,24E-01	1,15E-01
2068	2337	1,24E-01	1,15E-01
2069	2337	1,24E-01	1,15E-01
2071	2337	1,24E-01	1,15E-01
2074	2338	1,03E-01	9,66E-02
2073	2338	1,03E-01	9,66E-02
2070	2338	1,03E-01	9,66E-02
2071	2338	1,03E-01	9,66E-02
2071	2339	1,20E-01	1,15E-01
2074	2339	1,20E-01	1,15E-01
2075	2339	1,20E-01	1,15E-01
2072	2339	1,20E-01	1,15E-01
2074	2340	1,06E-01	1,03E-01
2076	2340	1,06E-01	1,03E-01
2077	2340	1,06E-01	1,03E-01
2073	2340	1,06E-01	1,03E-01
2078	2341	1,33E-01	1,35E-01
2075	2341	1,33E-01	1,35E-01
2077	2341	1,33E-01	1,35E-01
2074	2341	1,33E-01	1,35E-01
2080	2342	1,10E-01	1,10E-01
2076	2342	1,10E-01	1,10E-01
2077	2342	1,10E-01	1,10E-01
2079	2342	1,10E-01	1,10E-01
2077	2343	1,45E-01	1,46E-01
2078	2343	1,45E-01	1,46E-01
2081	2343	1,45E-01	1,46E-01
2080	2343	1,45E-01	1,46E-01
2082	2344	1,15E-01	1,18E-01
2079	2344	1,15E-01	1,18E-01
2080	2344	1,15E-01	1,18E-01
2083	2344	1,15E-01	1,18E-01
2084	2345	1,56E-01	1,56E-01
2081	2345	1,56E-01	1,56E-01
2083	2345	1,56E-01	1,56E-01
2080	2345	1,56E-01	1,56E-01
2086	2346	1,17E-01	1,23E-01
2085	2346	1,17E-01	1,23E-01
2082	2346	1,17E-01	1,23E-01
2083	2346	1,17E-01	1,23E-01
2087	2347	1,69E-01	1,72E-01
2086	2347	1,69E-01	1,72E-01
2083	2347	1,69E-01	1,72E-01
2084	2347	1,69E-01	1,72E-01
2089	2348	1,10E-01	1,13E-01
2085	2348	1,10E-01	1,13E-01
2086	2348	1,10E-01	1,13E-01
2088	2348	1,10E-01	1,13E-01
2086	2349	1,79E-01	1,76E-01
2087	2349	1,79E-01	1,76E-01
2090	2349	1,79E-01	1,76E-01
2089	2349	1,79E-01	1,76E-01
2092	2350	1,12E-01	1,05E-01
2089	2350	1,12E-01	1,05E-01
2091	2350	1,12E-01	1,05E-01
2088	2350	1,12E-01	1,05E-01
2092	2351	1,69E-01	1,55E-01
2093	2351	1,69E-01	1,55E-01
2090	2351	1,69E-01	1,55E-01
2089	2351	1,69E-01	1,55E-01
2092	2352	1,22E-01	1,13E-01
2094	2352	1,22E-01	1,13E-01
2095	2352	1,22E-01	1,13E-01
2091	2352	1,22E-01	1,13E-01
2095	2353	1,66E-01	1,59E-01
2096	2353	1,66E-01	1,59E-01
2093	2353	1,66E-01	1,59E-01
2092	2353	1,66E-01	1,59E-01
2094	2354	1,24E-01	1,21E-01
2095	2354	1,24E-01	1,21E-01
2098	2354	1,24E-01	1,21E-01
2097	2354	1,24E-01	1,21E-01
2095	2355	1,81E-01	1,84E-01
2098	2355	1,81E-01	1,84E-01
2099	2355	1,81E-01	1,84E-01
2096	2355	1,81E-01	1,84E-01
2098	2356	1,29E-01	1,30E-01
2101	2356	1,29E-01	1,30E-01
2100	2356	1,29E-01	1,30E-01
2097	2356	1,29E-01	1,30E-01
2099	2357	1,93E-01	1,95E-01
2101	2357	1,93E-01	1,95E-01
2098	2357	1,93E-01	1,95E-01
2102	2357	1,93E-01	1,95E-01
2100	2358	1,34E-01	1,39E-01
2104	2358	1,34E-01	1,39E-01
2103	2358	1,34E-01	1,39E-01
2101	2358	1,34E-01	1,39E-01
2102	2359	2,05E-01	2,06E-01
2101	2359	2,05E-01	2,06E-01
2105	2359	2,05E-01	2,06E-01
2104	2359	2,05E-01	2,06E-01
2107	2360	1,37E-01	1,45E-01
2103	2360	1,37E-01	1,45E-01
2104	2360	1,37E-01	1,45E-01
2106	2360	1,37E-01	1,45E-01
2107	2361	2,19E-01	2,22E-01
2108	2361	2,19E-01	2,22E-01
2105	2361	2,19E-01	2,22E-01
2104	2361	2,19E-01	2,22E-01
2109	2362	1,28E-01	1,31E-01
2106	2362	1,28E-01	1,31E-01
2107	2362	1,28E-01	1,31E-01
2110	2362	1,28E-01	1,31E-01
2111	2363	2,27E-01	2,23E-01
2107	2363	2,27E-01	2,23E-01
2110	2363	2,27E-01	2,23E-01
2108	2363	2,27E-01	2,23E-01
2109	2364	1,31E-01	1,22E-01
2113	2364	1,31E-01	1,22E-01
2110	2364	1,31E-01	1,22E-01
2112	2364	1,31E-01	1,22E-01
2111	2365	2,16E-01	1,97E-01
2113	2365	2,16E-01	1,97E-01
2110	2365	2,16E-01	1,97E-01
2114	2365	2,16E-01	1,97E-01
2112	2366	1,43E-01	1,34E-01
2116	2366	1,43E-01	1,34E-01
2113	2366	1,43E-01	1,34E-01
2115	2366	1,43E-01	1,34E-01
2117	2367	2,16E-01	2,07E-01
2116	2367	2,16E-01	2,07E-01
2114	2367	2,16E-01	2,07E-01
2113	2367	2,16E-01	2,07E-01
2115	2368	1,46E-01	1,46E-01
2116	2368	1,46E-01	1,46E-01
2119	2368	1,46E-01	1,46E-01
2118	2368	1,46E-01	1,46E-01
2117	2369	2,33E-01	2,38E-01
2116	2369	2,33E-01	2,38E-01
2119	2369	2,33E-01	2,38E-01
2120	2369	2,33E-01	2,38E-01
2118	2370	1,51E-01	1,58E-01
2119	2370	1,51E-01	1,58E-01
2121	2370	1,51E-01	1,58E-01
2122	2370	1,51E-01	1,58E-01
2119	2371	2,44E-01	2,48E-01
2123	2371	2,44E-01	2,48E-01
2122	2371	2,44E-01	2,48E-01
2120	2371	2,44E-01	2,48E-01
2124	2372	1,54E-01	1,64E-01
2122	2372	1,54E-01	1,64E-01
2121	2372	1,54E-01	1,64E-01
2125	2372	1,54E-01	1,64E-01
2125	2373	2,59E-01	2,64E-01
2122	2373	2,59E-01	2,64E-01
2123	2373	2,59E-01	2,64E-01
2126	2373	2,59E-01	2,64E-01
2125	2374	1,43E-01	1,46E-01
2124	2374	1,43E-01	1,46E-01
2127	2374	1,43E-01	1,46E-01
2128	2374	1,43E-01	1,46E-01
2128	2375	2,67E-01	2,61E-01
2126	2375	2,67E-01	2,61E-01
2125	2375	2,67E-01	2,61E-01
2129	2375	2,67E-01	2,61E-01
2134	2376	3,17E-01	3,17E-01
2133	2376	3,17E-01	3,17E-01
2130	2376	3,17E-01	3,17E-01
2131	2376	3,17E-01	3,17E-01
2132	2377	2,39E-01	2,39E-01
2134	2377	2,39E-01	2,39E-01
2131	2377	2,39E-01	2,39E-01
2135	2377	2,39E-01	2,39E-01
2137	2378	3,06E-01	3,04E-01
2136	2378	3,06E-01	3,04E-01
2133	2378	3,06E-01	3,04E-01
2134	2378	3,06E-01	3,04E-01
2134	2379	2,37E-01	2,38E-01
2135	2379	2,37E-01	2,38E-01
2138	2379	2,37E-01	2,38E-01
2137	2379	2,37E-01	2,38E-01
2136	2380	3,03E-01	3,07E-01
2139	2380	3,03E-01	3,07E-01
2140	2380	3,03E-01	3,07E-01
2137	2380	3,03E-01	3,07E-01
2137	2381	2,25E-01	2,28E-01
2140	2381	2,25E-01	2,28E-01
2141	2381	2,25E-01	2,28E-01
2138	2381	2,25E-01	2,28E-01
2140	2382	2,72E-01	2,71E-01
2143	2382	2,72E-01	2,71E-01
2142	2382	2,72E-01	2,71E-01
2139	2382	2,72E-01	2,71E-01
2143	2383	2,41E-01	2,40E-01
2144	2383	2,41E-01	2,40E-01
2141	2383	2,41E-01	2,40E-01
2140	2383	2,41E-01	2,40E-01
2225	2440	2,47E-01	2,38E-01
2226	2440	2,47E-01	2,38E-01
2228	2440	2,47E-01	2,38E-01
2229	2440	2,47E-01	2,38E-01
2230	2441	1,47E-01	1,41E-01
2227	2441	1,47E-01	1,41E-01
2226	2441	1,47E-01	1,41E-01
2229	2441	1,47E-01	1,41E-01
2232	2442	2,68E-01	2,64E-01
2229	2442	2,68E-01	2,64E-01
2231	2442	2,68E-01	2,64E-01
2228	2442	2,68E-01	2,64E-01
2232	2443	1,69E-01	1,66E-01
2233	2443	1,69E-01	1,66E-01
2230	2443	1,69E-01	1,66E-01
2229	2443	1,69E-01	1,66E-01
2234	2444	2,92E-01	3,05E-01
2231	2444	2,92E-01	3,05E-01
2235	2444	2,92E-01	3,05E-01
2232	2444	2,92E-01	3,05E-01
2233	2445	1,70E-01	1,80E-01
2235	2445	1,70E-01	1,80E-01
2236	2445	1,70E-01	1,80E-01
2232	2445	1,70E-01	1,80E-01
2234	2446	2,98E-01	2,97E-01
2237	2446	2,98E-01	2,97E-01
2238	2446	2,98E-01	2,97E-01
2235	2446	2,98E-01	2,97E-01
2235	2447	1,57E-01	1,61E-01
2238	2447	1,57E-01	1,61E-01
2239	2447	1,57E-01	1,61E-01
2236	2447	1,57E-01	1,61E-01
2244	2448	2,11E-01	2,13E-01
2240	2448	2,11E-01	2,13E-01
2243	2448	2,11E-01	2,13E-01
2241	2448	2,11E-01	2,13E-01
2242	2449	2,60E-01	2,62E-01
2241	2449	2,60E-01	2,62E-01
2244	2449	2,60E-01	2,62E-01
2245	2449	2,60E-01	2,62E-01
2243	2450	2,25E-01	2,25E-01
2247	2450	2,25E-01	2,25E-01
2246	2450	2,25E-01	2,25E-01
2244	2450	2,25E-01	2,25E-01
2247	2451	2,32E-01	2,32E-01
2248	2451	2,32E-01	2,32E-01
2245	2451	2,32E-01	2,32E-01
2244	2451	2,32E-01	2,32E-01
2250	2452	2,12E-01	2,11E-01
2247	2452	2,12E-01	2,11E-01
2249	2452	2,12E-01	2,11E-01
2246	2452	2,12E-01	2,11E-01
2250	2453	2,28E-01	2,22E-01
2247	2453	2,28E-01	2,22E-01
2251	2453	2,28E-01	2,22E-01
2248	2453	2,28E-01	2,22E-01
2252	2454	2,07E-01	2,10E-01
2253	2454	2,07E-01	2,10E-01
2249	2454	2,07E-01	2,10E-01
2250	2454	2,07E-01	2,10E-01
2250	2455	2,37E-01	2,36E-01
2251	2455	2,37E-01	2,36E-01
2254	2455	2,37E-01	2,36E-01
2253	2455	2,37E-01	2,36E-01
2255	2456	2,18E-01	2,21E-01
2253	2456	2,18E-01	2,21E-01
2256	2456	2,18E-01	2,21E-01
2252	2456	2,18E-01	2,21E-01
2253	2457	2,14E-01	2,15E-01
2254	2457	2,14E-01	2,15E-01
2256	2457	2,14E-01	2,15E-01
2257	2457	2,14E-01	2,15E-01
2258	2458	2,15E-01	2,16E-01
2255	2458	2,15E-01	2,16E-01
2259	2458	2,15E-01	2,16E-01
2256	2458	2,15E-01	2,16E-01
2259	2459	1,91E-01	1,91E-01
2257	2459	1,91E-01	1,91E-01
2260	2459	1,91E-01	1,91E-01
2256	2459	1,91E-01	1,91E-01
2261	2460	2,11E-01	2,10E-01
2258	2460	2,11E-01	2,10E-01
2259	2460	2,11E-01	2,10E-01
2262	2460	2,11E-01	2,10E-01
2263	2461	1,76E-01	1,77E-01
2259	2461	1,76E-01	1,77E-01
2260	2461	1,76E-01	1,77E-01
2262	2461	1,76E-01	1,77E-01
2264	2462	2,07E-01	2,04E-01
2262	2462	2,07E-01	2,04E-01
2261	2462	2,07E-01	2,04E-01
2265	2462	2,07E-01	2,04E-01
2263	2463	1,68E-01	1,69E-01
2265	2463	1,68E-01	1,69E-01
2262	2463	1,68E-01	1,69E-01
2266	2463	1,68E-01	1,69E-01
2264	2464	2,00E-01	1,97E-01
2268	2464	2,00E-01	1,97E-01
2265	2464	2,00E-01	1,97E-01
2267	2464	2,00E-01	1,97E-01
2265	2465	1,67E-01	1,67E-01
2266	2465	1,67E-01	1,67E-01
2268	2465	1,67E-01	1,67E-01
2269	2465	1,67E-01	1,67E-01
2271	2466	1,48E-01	1,46E-01
2267	2466	1,48E-01	1,46E-01
2270	2466	1,48E-01	1,46E-01
2268	2466	1,48E-01	1,46E-01
2269	2467	1,34E-01	1,33E-01
2268	2467	1,34E-01	1,33E-01
2271	2467	1,34E-01	1,33E-01
2272	2467	1,34E-01	1,33E-01
2750	2844	2,51E-15	2,79E-15
2747	2844	2,51E-15	2,79E-15
2749	2844	2,51E-15	2,79E-15
2746	2844	2,51E-15	2,79E-15
2751	2845	2,53E-15	2,79E-15
2748	2845	2,53E-15	2,79E-15
2747	2845	2,53E-15	2,79E-15
2750	2845	2,53E-15	2,79E-15
2749	2846	3,03E-15	3,19E-15
2750	2846	3,03E-15	3,19E-15
2752	2846	3,03E-15	3,19E-15
2753	2846	3,03E-15	3,19E-15
2750	2847	3,06E-15	3,08E-15
2753	2847	3,06E-15	3,08E-15
2754	2847	3,06E-15	3,08E-15
2751	2847	3,06E-15	3,08E-15
2753	2848	3,54E-15	2,86E-15
2755	2848	3,54E-15	2,86E-15
2752	2848	3,54E-15	2,86E-15
2756	2848	3,54E-15	2,86E-15
2754	2849	3,07E-15	2,64E-15
2757	2849	3,07E-15	2,64E-15
2753	2849	3,07E-15	2,64E-15
2756	2849	3,07E-15	2,64E-15
2756	2850	2,97E-15	2,81E-15
2759	2850	2,97E-15	2,81E-15
2758	2850	2,97E-15	2,81E-15
2755	2850	2,97E-15	2,81E-15
2757	2851	2,71E-15	2,43E-15
2759	2851	2,71E-15	2,43E-15
2756	2851	2,71E-15	2,43E-15
2760	2851	2,71E-15	2,43E-15
2759	2852	3,06E-15	3,44E-15
2762	2852	3,06E-15	3,44E-15
2761	2852	3,06E-15	3,44E-15
2758	2852	3,06E-15	3,44E-15
2759	2853	2,75E-15	2,70E-15
2760	2853	2,75E-15	2,70E-15
2762	2853	2,75E-15	2,70E-15
2763	2853	2,75E-15	2,70E-15
2823	2894	2,77E-15	2,90E-15
2820	2894	2,77E-15	2,90E-15
2819	2894	2,77E-15	2,90E-15
2822	2894	2,77E-15	2,90E-15
2823	2895	2,52E-15	2,56E-15
2821	2895	2,52E-15	2,56E-15
2820	2895	2,52E-15	2,56E-15
2824	2895	2,52E-15	2,56E-15
2826	2896	3,09E-15	3,46E-15
2823	2896	3,09E-15	3,46E-15
2825	2896	3,09E-15	3,46E-15
2822	2896	3,09E-15	3,46E-15
2826	2897	3,22E-15	3,25E-15
2824	2897	3,22E-15	3,25E-15
2823	2897	3,22E-15	3,25E-15
2827	2897	3,22E-15	3,25E-15
2825	2898	3,54E-15	3,94E-15
2828	2898	3,54E-15	3,94E-15
2826	2898	3,54E-15	3,94E-15
2829	2898	3,54E-15	3,94E-15
2826	2899	2,65E-15	3,18E-15
2829	2899	2,65E-15	3,18E-15
2830	2899	2,65E-15	3,18E-15
2827	2899	2,65E-15	3,18E-15
2832	2900	3,62E-15	3,72E-15
2831	2900	3,62E-15	3,72E-15
2829	2900	3,62E-15	3,72E-15
2828	2900	3,62E-15	3,72E-15
2832	2901	2,70E-15	3,51E-15
2833	2901	2,70E-15	3,51E-15
2829	2901	2,70E-15	3,51E-15
2830	2901	2,70E-15	3,51E-15
2834	2902	2,53E-15	2,40E-15
2835	2902	2,53E-15	2,40E-15
2832	2902	2,53E-15	2,40E-15
2831	2902	2,53E-15	2,40E-15
2836	2903	2,87E-15	3,02E-15
2835	2903	2,87E-15	3,02E-15
2832	2903	2,87E-15	3,02E-15
2833	2903	2,87E-15	3,02E-15
2837	2904	2,39E-01	2,39E-01
2840	2904	2,39E-01	2,39E-01
2838	2904	2,39E-01	2,39E-01
2841	2904	2,39E-01	2,39E-01
2842	2905	3,17E-01	3,17E-01
2841	2905	3,17E-01	3,17E-01
2838	2905	3,17E-01	3,17E-01
2839	2905	3,17E-01	3,17E-01
2844	2906	2,37E-01	2,38E-01
2840	2906	2,37E-01	2,38E-01
2843	2906	2,37E-01	2,38E-01
2841	2906	2,37E-01	2,38E-01
2844	2907	3,06E-01	3,04E-01
2845	2907	3,06E-01	3,04E-01
2841	2907	3,06E-01	3,04E-01
2842	2907	3,06E-01	3,04E-01
2844	2908	2,25E-01	2,28E-01
2846	2908	2,25E-01	2,28E-01
2843	2908	2,25E-01	2,28E-01
2847	2908	2,25E-01	2,28E-01
2844	2909	3,03E-01	3,07E-01
2845	2909	3,03E-01	3,07E-01
2847	2909	3,03E-01	3,07E-01
2848	2909	3,03E-01	3,07E-01
2846	2910	2,41E-01	2,40E-01
2847	2910	2,41E-01	2,40E-01
2849	2910	2,41E-01	2,40E-01
2850	2910	2,41E-01	2,40E-01
2847	2911	2,72E-01	2,71E-01
2848	2911	2,72E-01	2,71E-01
2851	2911	2,72E-01	2,71E-01
2850	2911	2,72E-01	2,71E-01
2882	2932	2,60E-01	2,62E-01
2886	2932	2,60E-01	2,62E-01
2885	2932	2,60E-01	2,62E-01
2883	2932	2,60E-01	2,62E-01
2883	2933	2,11E-01	2,13E-01
2884	2933	2,11E-01	2,13E-01
2886	2933	2,11E-01	2,13E-01
2887	2933	2,11E-01	2,13E-01
2885	2934	2,32E-01	2,32E-01
2888	2934	2,32E-01	2,32E-01
2889	2934	2,32E-01	2,32E-01
2886	2934	2,32E-01	2,32E-01
2887	2935	2,25E-01	2,25E-01
2886	2935	2,25E-01	2,25E-01
2889	2935	2,25E-01	2,25E-01
2890	2935	2,25E-01	2,25E-01
2889	2936	2,28E-01	2,22E-01
2888	2936	2,28E-01	2,22E-01
2892	2936	2,28E-01	2,22E-01
2891	2936	2,28E-01	2,22E-01
2892	2937	2,12E-01	2,11E-01
2893	2937	2,12E-01	2,11E-01
2890	2937	2,12E-01	2,11E-01
2889	2937	2,12E-01	2,11E-01
2891	2938	2,37E-01	2,36E-01
2892	2938	2,37E-01	2,36E-01
2894	2938	2,37E-01	2,36E-01
2895	2938	2,37E-01	2,36E-01
2893	2939	2,07E-01	2,10E-01
2895	2939	2,07E-01	2,10E-01
2896	2939	2,07E-01	2,10E-01
2892	2939	2,07E-01	2,10E-01
2894	2940	2,14E-01	2,15E-01
2897	2940	2,14E-01	2,15E-01
2895	2940	2,14E-01	2,15E-01
2898	2940	2,14E-01	2,15E-01
2896	2941	2,18E-01	2,21E-01
2898	2941	2,18E-01	2,21E-01
2895	2941	2,18E-01	2,21E-01
2899	2941	2,18E-01	2,21E-01
2901	2942	1,91E-01	1,91E-01
2900	2942	1,91E-01	1,91E-01
2898	2942	1,91E-01	1,91E-01
2897	2942	1,91E-01	1,91E-01
2899	2943	2,15E-01	2,16E-01
2901	2943	2,15E-01	2,16E-01
2898	2943	2,15E-01	2,16E-01
2902	2943	2,15E-01	2,16E-01
2903	2944	1,76E-01	1,77E-01
2901	2944	1,76E-01	1,77E-01
2904	2944	1,76E-01	1,77E-01
2900	2944	1,76E-01	1,77E-01
2904	2945	2,11E-01	2,10E-01
2902	2945	2,11E-01	2,10E-01
2905	2945	2,11E-01	2,10E-01
2901	2945	2,11E-01	2,10E-01
2903	2946	1,68E-01	1,69E-01
2906	2946	1,68E-01	1,69E-01
2904	2946	1,68E-01	1,69E-01
2907	2946	1,68E-01	1,69E-01
2907	2947	2,07E-01	2,04E-01
2905	2947	2,07E-01	2,04E-01
2908	2947	2,07E-01	2,04E-01
2904	2947	2,07E-01	2,04E-01
2907	2948	1,67E-01	1,67E-01
2910	2948	1,67E-01	1,67E-01
2909	2948	1,67E-01	1,67E-01
2906	2948	1,67E-01	1,67E-01
2908	2949	2,00E-01	1,97E-01
2910	2949	2,00E-01	1,97E-01
2907	2949	2,00E-01	1,97E-01
2911	2949	2,00E-01	1,97E-01
2910	2950	1,34E-01	1,33E-01
2909	2950	1,34E-01	1,33E-01
2912	2950	1,34E-01	1,33E-01
2913	2950	1,34E-01	1,33E-01
2911	2951	1,48E-01	1,46E-01
2914	2951	1,48E-01	1,46E-01
2910	2951	1,48E-01	1,46E-01
2913	2951	1,48E-01	1,46E-01
1	1	7,87E-04	8,85E-04
2288	1	7,87E-04	8,85E-04
2273	2	2,59E-03	2,66E-03
16	2	2,59E-03	2,66E-03
1009	3	3,49E-01	3,62E-01
544	3	3,49E-01	3,62E-01
529	4	1,07E-02	1,67E-02
994	4	1,07E-02	1,67E-02
2368	7	1,22E-14	1,03E-14
2353	9	1,65E-14	1,71E-14
1768	16	3,97E-01	4,26E-01
1073	16	3,97E-01	4,26E-01
1058	18	2,37E-02	3,28E-02
1753	18	2,37E-02	3,28E-02
1832	21	2,66E-01	2,79E-01
3026	21	2,66E-01	2,79E-01
3011	22	4,14E-02	4,38E-02
1817	22	4,14E-02	4,38E-02
2560	28	6,18E-03	6,36E-03
3186	28	6,18E-03	6,36E-03
2545	30	1,92E-03	2,16E-03
3171	30	1,92E-03	2,16E-03
2640	31	7,86E-15	9,44E-15
2625	32	6,74E-15	1,20E-14
2	36	8,00E-04	9,01E-04
2288	36	8,00E-04	9,01E-04
2287	36	8,00E-04	9,01E-04
1	36	8,00E-04	9,01E-04
3	37	8,43E-04	9,47E-04
2287	37	8,43E-04	9,47E-04
2	37	8,43E-04	9,47E-04
2286	37	8,43E-04	9,47E-04
2285	38	9,12E-04	1,02E-03
4	38	9,12E-04	1,02E-03
3	38	9,12E-04	1,02E-03
2286	38	9,12E-04	1,02E-03
2285	39	1,00E-03	1,10E-03
4	39	1,00E-03	1,10E-03
2284	39	1,00E-03	1,10E-03
5	39	1,00E-03	1,10E-03
2284	40	1,11E-03	1,21E-03
2283	40	1,11E-03	1,21E-03
6	40	1,11E-03	1,21E-03
5	40	1,11E-03	1,21E-03
2282	41	1,23E-03	1,32E-03
7	41	1,23E-03	1,32E-03
6	41	1,23E-03	1,32E-03
2283	41	1,23E-03	1,32E-03
2281	42	1,35E-03	1,45E-03
2282	42	1,35E-03	1,45E-03
8	42	1,35E-03	1,45E-03
7	42	1,35E-03	1,45E-03
2281	43	1,49E-03	1,58E-03
8	43	1,49E-03	1,58E-03
9	43	1,49E-03	1,58E-03
2280	43	1,49E-03	1,58E-03
10	44	1,63E-03	1,71E-03
9	44	1,63E-03	1,71E-03
2280	44	1,63E-03	1,71E-03
2279	44	1,63E-03	1,71E-03
2278	45	1,77E-03	1,85E-03
2279	45	1,77E-03	1,85E-03
11	45	1,77E-03	1,85E-03
10	45	1,77E-03	1,85E-03
11	46	1,91E-03	1,99E-03
2277	46	1,91E-03	1,99E-03
12	46	1,91E-03	1,99E-03
2278	46	1,91E-03	1,99E-03
12	47	2,06E-03	2,14E-03
13	47	2,06E-03	2,14E-03
2277	47	2,06E-03	2,14E-03
2276	47	2,06E-03	2,14E-03
2276	48	2,21E-03	2,29E-03
14	48	2,21E-03	2,29E-03
2275	48	2,21E-03	2,29E-03
13	48	2,21E-03	2,29E-03
15	49	2,36E-03	2,44E-03
2275	49	2,36E-03	2,44E-03
2274	49	2,36E-03	2,44E-03
14	49	2,36E-03	2,44E-03
2273	50	2,51E-03	2,59E-03
16	50	2,51E-03	2,59E-03
15	50	2,51E-03	2,59E-03
2274	50	2,51E-03	2,59E-03
32	51	1,17E-02	1,42E-02
16	51	1,17E-02	1,42E-02
48	52	2,33E-02	2,57E-02
32	52	2,33E-02	2,57E-02
48	53	3,53E-02	3,45E-02
64	53	3,53E-02	3,45E-02
80	54	4,87E-02	4,76E-02
64	54	4,87E-02	4,76E-02
80	55	6,08E-02	6,25E-02
96	55	6,08E-02	6,25E-02
96	56	7,59E-02	7,51E-02
112	56	7,59E-02	7,51E-02
128	57	8,87E-02	9,26E-02
112	57	8,87E-02	9,26E-02
128	58	8,45E-02	8,74E-02
144	58	8,45E-02	8,74E-02
144	59	8,51E-02	8,24E-02
160	59	8,51E-02	8,24E-02
160	60	1,04E-01	1,04E-01
176	60	1,04E-01	1,04E-01
192	61	1,20E-01	1,23E-01
176	61	1,20E-01	1,23E-01
208	62	1,36E-01	1,36E-01
192	62	1,36E-01	1,36E-01
224	63	1,49E-01	1,53E-01
208	63	1,49E-01	1,53E-01
224	64	1,45E-01	1,49E-01
240	64	1,45E-01	1,49E-01
256	65	1,48E-01	1,44E-01
240	65	1,48E-01	1,44E-01
272	66	1,66E-01	1,68E-01
256	66	1,66E-01	1,68E-01
272	67	1,84E-01	1,86E-01
288	67	1,84E-01	1,86E-01
288	68	1,97E-01	2,02E-01
304	68	1,97E-01	2,02E-01
320	69	2,13E-01	2,14E-01
304	69	2,13E-01	2,14E-01
320	70	2,25E-01	2,28E-01
336	70	2,25E-01	2,28E-01
336	71	2,17E-01	2,23E-01
352	71	2,17E-01	2,23E-01
368	72	2,22E-01	2,18E-01
352	72	2,22E-01	2,18E-01
368	73	2,41E-01	2,44E-01
384	73	2,41E-01	2,44E-01
384	74	2,59E-01	2,62E-01
400	74	2,59E-01	2,62E-01
416	75	2,73E-01	2,79E-01
400	75	2,73E-01	2,79E-01
432	76	2,88E-01	2,89E-01
416	76	2,88E-01	2,89E-01
448	77	2,98E-01	3,02E-01
432	77	2,98E-01	3,02E-01
464	78	2,89E-01	2,97E-01
448	78	2,89E-01	2,97E-01
464	79	2,94E-01	2,92E-01
480	79	2,94E-01	2,92E-01
480	80	3,17E-01	3,19E-01
496	80	3,17E-01	3,19E-01
496	81	3,33E-01	3,42E-01
512	81	3,33E-01	3,42E-01
528	82	3,50E-01	3,51E-01
512	82	3,50E-01	3,51E-01
528	83	3,59E-01	3,64E-01
544	83	3,59E-01	3,64E-01
1009	84	3,29E-01	3,40E-01
543	84	3,29E-01	3,40E-01
1008	84	3,29E-01	3,40E-01
544	84	3,29E-01	3,40E-01
542	85	2,98E-01	3,05E-01
1007	85	2,98E-01	3,05E-01
1008	85	2,98E-01	3,05E-01
543	85	2,98E-01	3,05E-01
1007	86	2,74E-01	2,82E-01
542	86	2,74E-01	2,82E-01
1006	86	2,74E-01	2,82E-01
541	86	2,74E-01	2,82E-01
1005	87	2,52E-01	2,61E-01
1006	87	2,52E-01	2,61E-01
540	87	2,52E-01	2,61E-01
541	87	2,52E-01	2,61E-01
1005	88	2,31E-01	2,40E-01
1004	88	2,31E-01	2,40E-01
539	88	2,31E-01	2,40E-01
540	88	2,31E-01	2,40E-01
538	89	2,10E-01	2,19E-01
1004	89	2,10E-01	2,19E-01
539	89	2,10E-01	2,19E-01
1003	89	2,10E-01	2,19E-01
1002	90	1,89E-01	1,98E-01
538	90	1,89E-01	1,98E-01
537	90	1,89E-01	1,98E-01
1003	90	1,89E-01	1,98E-01
536	91	1,68E-01	1,77E-01
1002	91	1,68E-01	1,77E-01
537	91	1,68E-01	1,77E-01
1001	91	1,68E-01	1,77E-01
1000	92	1,46E-01	1,56E-01
1001	92	1,46E-01	1,56E-01
535	92	1,46E-01	1,56E-01
536	92	1,46E-01	1,56E-01
1000	93	1,25E-01	1,35E-01
999	93	1,25E-01	1,35E-01
534	93	1,25E-01	1,35E-01
535	93	1,25E-01	1,35E-01
998	94	1,04E-01	1,13E-01
534	94	1,04E-01	1,13E-01
533	94	1,04E-01	1,13E-01
999	94	1,04E-01	1,13E-01
532	95	8,22E-02	9,18E-02
997	95	8,22E-02	9,18E-02
533	95	8,22E-02	9,18E-02
998	95	8,22E-02	9,18E-02
997	96	6,10E-02	7,02E-02
996	96	6,10E-02	7,02E-02
531	96	6,10E-02	7,02E-02
532	96	6,10E-02	7,02E-02
530	97	4,02E-02	4,86E-02
531	97	4,02E-02	4,86E-02
995	97	4,02E-02	4,86E-02
996	97	4,02E-02	4,86E-02
530	98	2,03E-02	2,72E-02
994	98	2,03E-02	2,72E-02
529	98	2,03E-02	2,72E-02
995	98	2,03E-02	2,72E-02
513	99	8,99E-03	1,91E-02
529	99	8,99E-03	1,91E-02
513	100	9,76E-03	2,02E-02
497	100	9,76E-03	2,02E-02
481	101	2,16E-02	2,32E-02
497	101	2,16E-02	2,32E-02
481	102	3,38E-02	3,67E-02
465	102	3,38E-02	3,67E-02
465	103	4,27E-02	5,21E-02
449	103	4,27E-02	5,21E-02
449	104	2,80E-02	3,55E-02
433	104	2,80E-02	3,55E-02
433	105	6,71E-03	1,48E-02
417	105	6,71E-03	1,48E-02
417	106	8,56E-03	1,45E-02
401	106	8,56E-03	1,45E-02
401	107	1,73E-02	1,94E-02
385	107	1,73E-02	1,94E-02
385	108	2,63E-02	2,63E-02
369	108	2,63E-02	2,63E-02
353	109	3,59E-02	3,78E-02
369	109	3,59E-02	3,78E-02
337	110	4,21E-02	5,05E-02
353	110	4,21E-02	5,05E-02
337	111	2,39E-02	3,13E-02
321	111	2,39E-02	3,13E-02
321	112	5,62E-03	9,75E-03
305	112	5,62E-03	9,75E-03
289	113	1,14E-02	1,24E-02
305	113	1,14E-02	1,24E-02
289	114	1,82E-02	1,81E-02
273	114	1,82E-02	1,81E-02
257	115	2,47E-02	2,36E-02
273	115	2,47E-02	2,36E-02
257	116	3,16E-02	3,21E-02
241	116	3,16E-02	3,21E-02
241	117	3,56E-02	4,20E-02
225	117	3,56E-02	4,20E-02
225	118	2,18E-02	2,77E-02
209	118	2,18E-02	2,77E-02
209	119	1,07E-02	1,14E-02
193	119	1,07E-02	1,14E-02
177	120	1,62E-02	1,47E-02
193	120	1,62E-02	1,47E-02
161	121	2,06E-02	1,83E-02
177	121	2,06E-02	1,83E-02
145	122	2,52E-02	2,41E-02
161	122	2,52E-02	2,41E-02
145	123	2,72E-02	3,10E-02
129	123	2,72E-02	3,10E-02
113	124	2,00E-02	2,45E-02
129	124	2,00E-02	2,45E-02
97	125	1,51E-02	1,65E-02
113	125	1,51E-02	1,65E-02
97	126	1,86E-02	1,63E-02
81	126	1,86E-02	1,63E-02
65	127	2,03E-02	1,80E-02
81	127	2,03E-02	1,80E-02
49	128	2,20E-02	1,96E-02
65	128	2,20E-02	1,96E-02
49	129	2,38E-02	2,23E-02
33	129	2,38E-02	2,23E-02
17	130	2,34E-02	2,65E-02
33	130	2,34E-02	2,65E-02
17	131	1,20E-02	1,46E-02
1	131	1,20E-02	1,46E-02
2352	167	1,25E-14	1,30E-14
2368	167	1,25E-14	1,30E-14
2336	168	1,18E-14	1,26E-14
2352	168	1,18E-14	1,26E-14
2320	169	1,12E-14	1,01E-14
2336	169	1,12E-14	1,01E-14
2304	170	1,22E-14	1,10E-14
2320	170	1,22E-14	1,10E-14
2304	171	1,09E-14	1,16E-14
2288	171	1,09E-14	1,16E-14
2289	176	1,27E-14	1,38E-14
2273	176	1,27E-14	1,38E-14
2305	177	1,77E-14	1,81E-14
2289	177	1,77E-14	1,81E-14
2321	178	2,46E-14	2,41E-14
2305	178	2,46E-14	2,41E-14
2337	179	2,26E-14	2,33E-14
2321	179	2,26E-14	2,33E-14
2337	180	1,78E-14	1,88E-14
2353	180	1,78E-14	1,88E-14
1025	314	3,48E-01	3,50E-01
1009	314	3,48E-01	3,50E-01
1025	315	3,69E-01	3,71E-01
1041	315	3,69E-01	3,71E-01
1057	316	3,96E-01	3,97E-01
1041	316	3,96E-01	3,97E-01
1073	317	4,08E-01	4,16E-01
1057	317	4,08E-01	4,16E-01
1768	324	3,67E-01	3,96E-01
1073	324	3,67E-01	3,96E-01
1767	324	3,67E-01	3,96E-01
1072	324	3,67E-01	3,96E-01
1072	325	3,28E-01	3,55E-01
1071	325	3,28E-01	3,55E-01
1766	325	3,28E-01	3,55E-01
1767	325	3,28E-01	3,55E-01
1766	326	3,06E-01	3,32E-01
1071	326	3,06E-01	3,32E-01
1070	326	3,06E-01	3,32E-01
1765	326	3,06E-01	3,32E-01
1070	327	2,81E-01	3,08E-01
1764	327	2,81E-01	3,08E-01
1765	327	2,81E-01	3,08E-01
1069	327	2,81E-01	3,08E-01
1069	328	2,57E-01	2,84E-01
1764	328	2,57E-01	2,84E-01
1068	328	2,57E-01	2,84E-01
1763	328	2,57E-01	2,84E-01
1068	329	2,33E-01	2,60E-01
1067	329	2,33E-01	2,60E-01
1762	329	2,33E-01	2,60E-01
1763	329	2,33E-01	2,60E-01
1067	330	2,09E-01	2,36E-01
1762	330	2,09E-01	2,36E-01
1761	330	2,09E-01	2,36E-01
1066	330	2,09E-01	2,36E-01
1066	331	1,85E-01	2,12E-01
1760	331	1,85E-01	2,12E-01
1065	331	1,85E-01	2,12E-01
1761	331	1,85E-01	2,12E-01
1760	332	1,61E-01	1,87E-01
1759	332	1,61E-01	1,87E-01
1064	332	1,61E-01	1,87E-01
1065	332	1,61E-01	1,87E-01
1064	333	1,36E-01	1,63E-01
1063	333	1,36E-01	1,63E-01
1758	333	1,36E-01	1,63E-01
1759	333	1,36E-01	1,63E-01
1757	334	1,12E-01	1,39E-01
1758	334	1,12E-01	1,39E-01
1062	334	1,12E-01	1,39E-01
1063	334	1,12E-01	1,39E-01
1757	335	8,84E-02	1,14E-01
1756	335	8,84E-02	1,14E-01
1061	335	8,84E-02	1,14E-01
1062	335	8,84E-02	1,14E-01
1755	336	6,53E-02	9,04E-02
1756	336	6,53E-02	9,04E-02
1061	336	6,53E-02	9,04E-02
1060	336	6,53E-02	9,04E-02
1060	337	4,43E-02	6,67E-02
1755	337	4,43E-02	6,67E-02
1059	337	4,43E-02	6,67E-02
1754	337	4,43E-02	6,67E-02
1753	338	2,91E-02	4,38E-02
1059	338	2,91E-02	4,38E-02
1754	338	2,91E-02	4,38E-02
1058	338	2,91E-02	4,38E-02
1042	339	1,18E-02	1,91E-02
1058	339	1,18E-02	1,91E-02
1042	340	2,13E-02	2,97E-02
1026	340	2,13E-02	2,97E-02
1026	341	3,48E-02	4,30E-02
1010	341	3,48E-02	4,30E-02
994	342	2,42E-02	3,02E-02
1010	342	2,42E-02	3,02E-02
1768	393	3,69E-01	3,74E-01
1784	393	3,69E-01	3,74E-01
1800	394	3,51E-01	3,57E-01
1784	394	3,51E-01	3,57E-01
1816	395	3,37E-01	3,50E-01
1800	395	3,37E-01	3,50E-01
1832	396	2,92E-01	2,81E-01
1816	396	2,92E-01	2,81E-01
1832	397	2,58E-01	2,67E-01
3026	397	2,58E-01	2,67E-01
1831	397	2,58E-01	2,67E-01
3025	397	2,58E-01	2,67E-01
3024	398	2,45E-01	2,51E-01
1830	398	2,45E-01	2,51E-01
1831	398	2,45E-01	2,51E-01
3025	398	2,45E-01	2,51E-01
3023	399	2,31E-01	2,36E-01
1830	399	2,31E-01	2,36E-01
3024	399	2,31E-01	2,36E-01
1829	399	2,31E-01	2,36E-01
3022	400	2,14E-01	2,20E-01
3023	400	2,14E-01	2,20E-01
1828	400	2,14E-01	2,20E-01
1829	400	2,14E-01	2,20E-01
3021	401	1,97E-01	2,03E-01
1828	401	1,97E-01	2,03E-01
3022	401	1,97E-01	2,03E-01
1827	401	1,97E-01	2,03E-01
3021	402	1,80E-01	1,86E-01
1826	402	1,80E-01	1,86E-01
3020	402	1,80E-01	1,86E-01
1827	402	1,80E-01	1,86E-01
3019	403	1,63E-01	1,69E-01
3020	403	1,63E-01	1,69E-01
1825	403	1,63E-01	1,69E-01
1826	403	1,63E-01	1,69E-01
1825	404	1,46E-01	1,52E-01
3018	404	1,46E-01	1,52E-01
3019	404	1,46E-01	1,52E-01
1824	404	1,46E-01	1,52E-01
1824	405	1,29E-01	1,35E-01
3018	405	1,29E-01	1,35E-01
3017	405	1,29E-01	1,35E-01
1823	405	1,29E-01	1,35E-01
1823	406	1,12E-01	1,19E-01
1822	406	1,12E-01	1,19E-01
3016	406	1,12E-01	1,19E-01
3017	406	1,12E-01	1,19E-01
3015	407	9,64E-02	1,02E-01
1822	407	9,64E-02	1,02E-01
1821	407	9,64E-02	1,02E-01
3016	407	9,64E-02	1,02E-01
3015	408	8,11E-02	8,70E-02
3014	408	8,11E-02	8,70E-02
1821	408	8,11E-02	8,70E-02
1820	408	8,11E-02	8,70E-02
1820	409	6,70E-02	7,28E-02
3013	409	6,70E-02	7,28E-02
3014	409	6,70E-02	7,28E-02
1819	409	6,70E-02	7,28E-02
3012	410	5,58E-02	6,09E-02
3013	410	5,58E-02	6,09E-02
1818	410	5,58E-02	6,09E-02
1819	410	5,58E-02	6,09E-02
1817	411	4,63E-02	4,97E-02
1818	411	4,63E-02	4,97E-02
3011	411	4,63E-02	4,97E-02
3012	411	4,63E-02	4,97E-02
1801	412	5,13E-02	5,26E-02
1817	412	5,13E-02	5,26E-02
1801	413	3,85E-02	4,12E-02
1785	413	3,85E-02	4,12E-02
1785	414	3,87E-02	3,78E-02
1769	414	3,87E-02	3,78E-02
1769	415	4,39E-02	4,60E-02
1753	415	4,39E-02	4,60E-02
3042	470	2,56E-01	2,69E-01
3026	470	2,56E-01	2,69E-01
3042	471	2,15E-01	2,02E-01
3058	471	2,15E-01	2,02E-01
3074	472	2,04E-01	2,13E-01
3058	472	2,04E-01	2,13E-01
3090	473	2,12E-01	2,21E-01
3074	473	2,12E-01	2,21E-01
3106	474	1,81E-01	1,79E-01
3090	474	1,81E-01	1,79E-01
3106	475	1,45E-01	1,49E-01
3122	475	1,45E-01	1,49E-01
3138	476	1,16E-01	1,13E-01
3122	476	1,16E-01	1,13E-01
3138	477	8,36E-02	8,16E-02
3154	477	8,36E-02	8,16E-02
3170	478	5,50E-02	6,11E-02
3154	478	5,50E-02	6,11E-02
3186	479	2,76E-02	3,41E-02
3170	479	2,76E-02	3,41E-02
2367	492	1,38E-14	1,48E-14
2368	492	1,38E-14	1,48E-14
2366	493	1,09E-14	1,37E-14
2367	493	1,09E-14	1,37E-14
2366	494	1,51E-14	1,43E-14
2365	494	1,51E-14	1,43E-14
2364	495	1,99E-14	1,70E-14
2365	495	1,99E-14	1,70E-14
2363	496	1,22E-14	1,14E-14
2364	496	1,22E-14	1,14E-14
2362	497	1,28E-14	1,17E-14
2363	497	1,28E-14	1,17E-14
2361	498	1,21E-14	1,22E-14
2362	498	1,21E-14	1,22E-14
2361	499	1,13E-14	1,53E-14
2360	499	1,13E-14	1,53E-14
2359	500	9,69E-15	1,37E-14
2360	500	9,69E-15	1,37E-14
2358	501	2,94E-15	4,87E-15
2359	501	2,94E-15	4,87E-15
2358	502	6,16E-15	6,02E-15
2357	502	6,16E-15	6,02E-15
2356	503	1,37E-14	1,21E-14
2357	503	1,37E-14	1,21E-14
2355	504	1,01E-14	8,26E-15
2356	504	1,01E-14	8,26E-15
2354	505	2,09E-15	1,57E-15
2355	505	2,09E-15	1,57E-15
2353	506	8,91E-15	9,21E-15
2354	506	8,91E-15	9,21E-15
3027	522	3,99E-02	4,15E-02
3011	522	3,99E-02	4,15E-02
3043	523	4,88E-02	4,89E-02
3027	523	4,88E-02	4,89E-02
3059	524	3,99E-02	4,40E-02
3043	524	3,99E-02	4,40E-02
3059	525	3,69E-02	4,03E-02
3075	525	3,69E-02	4,03E-02
3091	526	4,52E-02	3,98E-02
3075	526	4,52E-02	3,98E-02
3091	527	4,92E-02	4,36E-02
3107	527	4,92E-02	4,36E-02
3107	528	5,32E-02	4,72E-02
3123	528	5,32E-02	4,72E-02
3139	529	5,75E-02	5,37E-02
3123	529	5,75E-02	5,37E-02
3155	530	5,63E-02	6,37E-02
3139	530	5,63E-02	6,37E-02
3171	531	2,88E-02	3,51E-02
3155	531	2,88E-02	3,51E-02
3171	547	1,95E-03	2,19E-03
3172	547	1,95E-03	2,19E-03
2545	547	1,95E-03	2,19E-03
2546	547	1,95E-03	2,19E-03
3172	548	2,05E-03	2,30E-03
3173	548	2,05E-03	2,30E-03
2546	548	2,05E-03	2,30E-03
2547	548	2,05E-03	2,30E-03
3173	549	2,21E-03	2,46E-03
2548	549	2,21E-03	2,46E-03
2547	549	2,21E-03	2,46E-03
3174	549	2,21E-03	2,46E-03
2549	550	2,42E-03	2,67E-03
3175	550	2,42E-03	2,67E-03
2548	550	2,42E-03	2,67E-03
3174	550	2,42E-03	2,67E-03
3176	551	2,67E-03	2,91E-03
2549	551	2,67E-03	2,91E-03
2550	551	2,67E-03	2,91E-03
3175	551	2,67E-03	2,91E-03
2551	552	2,95E-03	3,18E-03
3177	552	2,95E-03	3,18E-03
3176	552	2,95E-03	3,18E-03
2550	552	2,95E-03	3,18E-03
3177	553	3,25E-03	3,47E-03
2551	553	3,25E-03	3,47E-03
3178	553	3,25E-03	3,47E-03
2552	553	3,25E-03	3,47E-03
3178	554	3,57E-03	3,78E-03
2552	554	3,57E-03	3,78E-03
3179	554	3,57E-03	3,78E-03
2553	554	3,57E-03	3,78E-03
2553	555	3,89E-03	4,10E-03
3180	555	3,89E-03	4,10E-03
2554	555	3,89E-03	4,10E-03
3179	555	3,89E-03	4,10E-03
3181	556	4,23E-03	4,43E-03
2554	556	4,23E-03	4,43E-03
2555	556	4,23E-03	4,43E-03
3180	556	4,23E-03	4,43E-03
3182	557	4,57E-03	4,77E-03
2556	557	4,57E-03	4,77E-03
2555	557	4,57E-03	4,77E-03
3181	557	4,57E-03	4,77E-03
2557	558	4,92E-03	5,12E-03
3182	558	4,92E-03	5,12E-03
2556	558	4,92E-03	5,12E-03
3183	558	4,92E-03	5,12E-03
3184	559	5,28E-03	5,47E-03
3183	559	5,28E-03	5,47E-03
2557	559	5,28E-03	5,47E-03
2558	559	5,28E-03	5,47E-03
2559	560	5,64E-03	5,82E-03
3184	560	5,64E-03	5,82E-03
3185	560	5,64E-03	5,82E-03
2558	560	5,64E-03	5,82E-03
3186	561	6,00E-03	6,18E-03
2559	561	6,00E-03	6,18E-03
2560	561	6,00E-03	6,18E-03
3185	561	6,00E-03	6,18E-03
2560	562	1,08E-14	1,15E-14
2576	562	1,08E-14	1,15E-14
2576	563	5,42E-15	5,46E-15
2592	563	5,42E-15	5,46E-15
2608	564	6,80E-15	6,69E-15
2592	564	6,80E-15	6,69E-15
2624	565	8,47E-15	9,40E-15
2608	565	8,47E-15	9,40E-15
2640	566	8,55E-15	9,96E-15
2624	566	8,55E-15	9,96E-15
2640	567	7,50E-15	9,14E-15
2639	567	7,50E-15	9,14E-15
2639	568	8,69E-15	8,94E-15
2638	568	8,69E-15	8,94E-15
2638	569	9,79E-15	9,46E-15
2637	569	9,79E-15	9,46E-15
2636	570	7,73E-15	7,30E-15
2637	570	7,73E-15	7,30E-15
2635	571	6,37E-15	5,93E-15
2636	571	6,37E-15	5,93E-15
2635	572	5,63E-15	8,30E-15
2634	572	5,63E-15	8,30E-15
2634	573	6,63E-15	7,30E-15
2633	573	6,63E-15	7,30E-15
2632	574	1,03E-14	8,30E-15
2633	574	1,03E-14	8,30E-15
2632	575	8,18E-15	7,67E-15
2631	575	8,18E-15	7,67E-15
2631	576	5,00E-15	3,09E-15
2630	576	5,00E-15	3,09E-15
2629	577	6,04E-15	3,04E-15
2630	577	6,04E-15	3,04E-15
2629	578	1,17E-14	1,17E-14
2628	578	1,17E-14	1,17E-14
2628	579	1,11E-14	1,59E-14
2627	579	1,11E-14	1,59E-14
2627	580	6,88E-15	1,05E-14
2626	580	6,88E-15	1,05E-14
2625	581	7,68E-15	1,03E-14
2626	581	7,68E-15	1,03E-14
2609	582	5,02E-15	9,30E-15
2625	582	5,02E-15	9,30E-15
2593	583	6,91E-15	9,45E-15
2609	583	6,91E-15	9,45E-15
2593	584	7,39E-15	9,06E-15
2577	584	7,39E-15	9,06E-15
2577	585	1,25E-14	1,19E-14
2561	585	1,25E-14	1,19E-14
2545	586	1,35E-14	1,16E-14
2561	586	1,35E-14	1,16E-14
1	635	1,28E-02	1,43E-02
17	635	1,28E-02	1,43E-02
18	635	1,28E-02	1,43E-02
2	635	1,28E-02	1,43E-02
19	636	1,40E-02	1,38E-02
2	636	1,40E-02	1,38E-02
18	636	1,40E-02	1,38E-02
3	636	1,40E-02	1,38E-02
3	637	1,47E-02	1,40E-02
4	637	1,47E-02	1,40E-02
20	637	1,47E-02	1,40E-02
19	637	1,47E-02	1,40E-02
4	638	1,55E-02	1,45E-02
21	638	1,55E-02	1,45E-02
20	638	1,55E-02	1,45E-02
5	638	1,55E-02	1,45E-02
22	639	1,64E-02	1,51E-02
5	639	1,64E-02	1,51E-02
6	639	1,64E-02	1,51E-02
21	639	1,64E-02	1,51E-02
22	640	1,74E-02	1,58E-02
23	640	1,74E-02	1,58E-02
7	640	1,74E-02	1,58E-02
6	640	1,74E-02	1,58E-02
8	641	1,84E-02	1,66E-02
24	641	1,84E-02	1,66E-02
23	641	1,84E-02	1,66E-02
7	641	1,84E-02	1,66E-02
25	642	1,93E-02	1,74E-02
24	642	1,93E-02	1,74E-02
9	642	1,93E-02	1,74E-02
8	642	1,93E-02	1,74E-02
25	643	2,03E-02	1,82E-02
10	643	2,03E-02	1,82E-02
26	643	2,03E-02	1,82E-02
9	643	2,03E-02	1,82E-02
11	644	2,11E-02	1,89E-02
27	644	2,11E-02	1,89E-02
26	644	2,11E-02	1,89E-02
10	644	2,11E-02	1,89E-02
28	645	2,15E-02	1,91E-02
27	645	2,15E-02	1,91E-02
11	645	2,15E-02	1,91E-02
12	645	2,15E-02	1,91E-02
28	646	2,15E-02	1,89E-02
29	646	2,15E-02	1,89E-02
12	646	2,15E-02	1,89E-02
13	646	2,15E-02	1,89E-02
30	647	2,03E-02	1,73E-02
13	647	2,03E-02	1,73E-02
14	647	2,03E-02	1,73E-02
29	647	2,03E-02	1,73E-02
14	648	1,78E-02	1,43E-02
30	648	1,78E-02	1,43E-02
15	648	1,78E-02	1,43E-02
31	648	1,78E-02	1,43E-02
31	649	1,40E-02	1,34E-02
16	649	1,40E-02	1,34E-02
15	649	1,40E-02	1,34E-02
32	649	1,40E-02	1,34E-02
34	650	2,39E-02	2,59E-02
17	650	2,39E-02	2,59E-02
33	650	2,39E-02	2,59E-02
18	650	2,39E-02	2,59E-02
35	651	2,51E-02	2,52E-02
19	651	2,51E-02	2,52E-02
34	651	2,51E-02	2,52E-02
18	651	2,51E-02	2,52E-02
36	652	2,66E-02	2,54E-02
19	652	2,66E-02	2,54E-02
20	652	2,66E-02	2,54E-02
35	652	2,66E-02	2,54E-02
20	653	2,81E-02	2,62E-02
21	653	2,81E-02	2,62E-02
36	653	2,81E-02	2,62E-02
37	653	2,81E-02	2,62E-02
37	654	2,97E-02	2,73E-02
21	654	2,97E-02	2,73E-02
38	654	2,97E-02	2,73E-02
22	654	2,97E-02	2,73E-02
23	655	3,14E-02	2,87E-02
39	655	3,14E-02	2,87E-02
22	655	3,14E-02	2,87E-02
38	655	3,14E-02	2,87E-02
40	656	3,33E-02	3,03E-02
24	656	3,33E-02	3,03E-02
23	656	3,33E-02	3,03E-02
39	656	3,33E-02	3,03E-02
41	657	3,52E-02	3,19E-02
25	657	3,52E-02	3,19E-02
24	657	3,52E-02	3,19E-02
40	657	3,52E-02	3,19E-02
25	658	3,70E-02	3,35E-02
42	658	3,70E-02	3,35E-02
41	658	3,70E-02	3,35E-02
26	658	3,70E-02	3,35E-02
26	659	3,88E-02	3,50E-02
42	659	3,88E-02	3,50E-02
43	659	3,88E-02	3,50E-02
27	659	3,88E-02	3,50E-02
27	660	4,00E-02	3,60E-02
28	660	4,00E-02	3,60E-02
44	660	4,00E-02	3,60E-02
43	660	4,00E-02	3,60E-02
29	661	4,02E-02	3,59E-02
45	661	4,02E-02	3,59E-02
28	661	4,02E-02	3,59E-02
44	661	4,02E-02	3,59E-02
46	662	3,85E-02	3,38E-02
30	662	3,85E-02	3,38E-02
45	662	3,85E-02	3,38E-02
29	662	3,85E-02	3,38E-02
31	663	3,23E-02	2,77E-02
47	663	3,23E-02	2,77E-02
46	663	3,23E-02	2,77E-02
30	663	3,23E-02	2,77E-02
31	664	2,55E-02	2,45E-02
48	664	2,55E-02	2,45E-02
47	664	2,55E-02	2,45E-02
32	664	2,55E-02	2,45E-02
49	665	2,35E-02	2,29E-02
34	665	2,35E-02	2,29E-02
33	665	2,35E-02	2,29E-02
50	665	2,35E-02	2,29E-02
51	666	2,35E-02	2,37E-02
50	666	2,35E-02	2,37E-02
35	666	2,35E-02	2,37E-02
34	666	2,35E-02	2,37E-02
52	667	2,46E-02	2,42E-02
35	667	2,46E-02	2,42E-02
36	667	2,46E-02	2,42E-02
51	667	2,46E-02	2,42E-02
37	668	2,62E-02	2,51E-02
53	668	2,62E-02	2,51E-02
52	668	2,62E-02	2,51E-02
36	668	2,62E-02	2,51E-02
38	669	2,78E-02	2,66E-02
54	669	2,78E-02	2,66E-02
37	669	2,78E-02	2,66E-02
53	669	2,78E-02	2,66E-02
54	670	2,97E-02	2,82E-02
39	670	2,97E-02	2,82E-02
38	670	2,97E-02	2,82E-02
55	670	2,97E-02	2,82E-02
40	671	3,18E-02	3,02E-02
39	671	3,18E-02	3,02E-02
55	671	3,18E-02	3,02E-02
56	671	3,18E-02	3,02E-02
56	672	3,40E-02	3,23E-02
40	672	3,40E-02	3,23E-02
57	672	3,40E-02	3,23E-02
41	672	3,40E-02	3,23E-02
42	673	3,64E-02	3,45E-02
57	673	3,64E-02	3,45E-02
58	673	3,64E-02	3,45E-02
41	673	3,64E-02	3,45E-02
42	674	3,87E-02	3,68E-02
43	674	3,87E-02	3,68E-02
58	674	3,87E-02	3,68E-02
59	674	3,87E-02	3,68E-02
59	675	4,10E-02	3,89E-02
43	675	4,10E-02	3,89E-02
60	675	4,10E-02	3,89E-02
44	675	4,10E-02	3,89E-02
45	676	4,23E-02	4,03E-02
60	676	4,23E-02	4,03E-02
61	676	4,23E-02	4,03E-02
44	676	4,23E-02	4,03E-02
45	677	4,16E-02	3,99E-02
46	677	4,16E-02	3,99E-02
62	677	4,16E-02	3,99E-02
61	677	4,16E-02	3,99E-02
46	678	3,61E-02	3,54E-02
47	678	3,61E-02	3,54E-02
63	678	3,61E-02	3,54E-02
62	678	3,61E-02	3,54E-02
47	679	3,34E-02	3,30E-02
48	679	3,34E-02	3,30E-02
63	679	3,34E-02	3,30E-02
64	679	3,34E-02	3,30E-02
66	680	2,21E-02	2,02E-02
49	680	2,21E-02	2,02E-02
65	680	2,21E-02	2,02E-02
50	680	2,21E-02	2,02E-02
67	681	2,23E-02	2,15E-02
66	681	2,23E-02	2,15E-02
51	681	2,23E-02	2,15E-02
50	681	2,23E-02	2,15E-02
68	682	2,30E-02	2,29E-02
52	682	2,30E-02	2,29E-02
67	682	2,30E-02	2,29E-02
51	682	2,30E-02	2,29E-02
52	683	2,43E-02	2,42E-02
68	683	2,43E-02	2,42E-02
53	683	2,43E-02	2,42E-02
69	683	2,43E-02	2,42E-02
54	684	2,60E-02	2,59E-02
69	684	2,60E-02	2,59E-02
53	684	2,60E-02	2,59E-02
70	684	2,60E-02	2,59E-02
71	685	2,80E-02	2,79E-02
54	685	2,80E-02	2,79E-02
70	685	2,80E-02	2,79E-02
55	685	2,80E-02	2,79E-02
55	686	3,03E-02	3,01E-02
72	686	3,03E-02	3,01E-02
56	686	3,03E-02	3,01E-02
71	686	3,03E-02	3,01E-02
57	687	3,27E-02	3,25E-02
56	687	3,27E-02	3,25E-02
72	687	3,27E-02	3,25E-02
73	687	3,27E-02	3,25E-02
74	688	3,53E-02	3,52E-02
58	688	3,53E-02	3,52E-02
57	688	3,53E-02	3,52E-02
73	688	3,53E-02	3,52E-02
74	689	3,81E-02	3,80E-02
75	689	3,81E-02	3,80E-02
59	689	3,81E-02	3,80E-02
58	689	3,81E-02	3,80E-02
76	690	4,08E-02	4,07E-02
75	690	4,08E-02	4,07E-02
60	690	4,08E-02	4,07E-02
59	690	4,08E-02	4,07E-02
61	691	4,32E-02	4,32E-02
76	691	4,32E-02	4,32E-02
77	691	4,32E-02	4,32E-02
60	691	4,32E-02	4,32E-02
78	692	4,36E-02	4,43E-02
62	692	4,36E-02	4,43E-02
61	692	4,36E-02	4,43E-02
77	692	4,36E-02	4,43E-02
62	693	4,18E-02	4,31E-02
78	693	4,18E-02	4,31E-02
63	693	4,18E-02	4,31E-02
79	693	4,18E-02	4,31E-02
63	694	4,47E-02	4,48E-02
80	694	4,47E-02	4,48E-02
64	694	4,47E-02	4,48E-02
79	694	4,47E-02	4,48E-02
65	695	2,03E-02	1,85E-02
82	695	2,03E-02	1,85E-02
81	695	2,03E-02	1,85E-02
66	695	2,03E-02	1,85E-02
82	696	2,06E-02	1,98E-02
66	696	2,06E-02	1,98E-02
67	696	2,06E-02	1,98E-02
83	696	2,06E-02	1,98E-02
67	697	2,11E-02	2,17E-02
84	697	2,11E-02	2,17E-02
68	697	2,11E-02	2,17E-02
83	697	2,11E-02	2,17E-02
84	698	2,24E-02	2,34E-02
85	698	2,24E-02	2,34E-02
68	698	2,24E-02	2,34E-02
69	698	2,24E-02	2,34E-02
85	699	2,41E-02	2,53E-02
70	699	2,41E-02	2,53E-02
86	699	2,41E-02	2,53E-02
69	699	2,41E-02	2,53E-02
87	700	2,62E-02	2,75E-02
86	700	2,62E-02	2,75E-02
71	700	2,62E-02	2,75E-02
70	700	2,62E-02	2,75E-02
72	701	2,85E-02	2,99E-02
71	701	2,85E-02	2,99E-02
87	701	2,85E-02	2,99E-02
88	701	2,85E-02	2,99E-02
88	702	3,10E-02	3,25E-02
89	702	3,10E-02	3,25E-02
73	702	3,10E-02	3,25E-02
72	702	3,10E-02	3,25E-02
73	703	3,37E-02	3,53E-02
89	703	3,37E-02	3,53E-02
90	703	3,37E-02	3,53E-02
74	703	3,37E-02	3,53E-02
90	704	3,66E-02	3,82E-02
91	704	3,66E-02	3,82E-02
74	704	3,66E-02	3,82E-02
75	704	3,66E-02	3,82E-02
75	705	3,95E-02	4,13E-02
92	705	3,95E-02	4,13E-02
76	705	3,95E-02	4,13E-02
91	705	3,95E-02	4,13E-02
92	706	4,23E-02	4,43E-02
76	706	4,23E-02	4,43E-02
93	706	4,23E-02	4,43E-02
77	706	4,23E-02	4,43E-02
77	707	4,53E-02	4,73E-02
93	707	4,53E-02	4,73E-02
78	707	4,53E-02	4,73E-02
94	707	4,53E-02	4,73E-02
78	708	4,90E-02	5,05E-02
94	708	4,90E-02	5,05E-02
95	708	4,90E-02	5,05E-02
79	708	4,90E-02	5,05E-02
80	709	5,59E-02	5,73E-02
96	709	5,59E-02	5,73E-02
95	709	5,59E-02	5,73E-02
79	709	5,59E-02	5,73E-02
97	710	1,83E-02	1,73E-02
98	710	1,83E-02	1,73E-02
81	710	1,83E-02	1,73E-02
82	710	1,83E-02	1,73E-02
82	711	1,82E-02	1,90E-02
98	711	1,82E-02	1,90E-02
99	711	1,82E-02	1,90E-02
83	711	1,82E-02	1,90E-02
84	712	1,90E-02	2,07E-02
99	712	1,90E-02	2,07E-02
83	712	1,90E-02	2,07E-02
100	712	1,90E-02	2,07E-02
100	713	2,04E-02	2,26E-02
85	713	2,04E-02	2,26E-02
101	713	2,04E-02	2,26E-02
84	713	2,04E-02	2,26E-02
86	714	2,21E-02	2,48E-02
85	714	2,21E-02	2,48E-02
101	714	2,21E-02	2,48E-02
102	714	2,21E-02	2,48E-02
86	715	2,42E-02	2,72E-02
102	715	2,42E-02	2,72E-02
103	715	2,42E-02	2,72E-02
87	715	2,42E-02	2,72E-02
103	716	2,66E-02	2,97E-02
104	716	2,66E-02	2,97E-02
87	716	2,66E-02	2,97E-02
88	716	2,66E-02	2,97E-02
104	717	2,91E-02	3,23E-02
89	717	2,91E-02	3,23E-02
88	717	2,91E-02	3,23E-02
105	717	2,91E-02	3,23E-02
89	718	3,17E-02	3,51E-02
106	718	3,17E-02	3,51E-02
105	718	3,17E-02	3,51E-02
90	718	3,17E-02	3,51E-02
91	719	3,44E-02	3,79E-02
107	719	3,44E-02	3,79E-02
90	719	3,44E-02	3,79E-02
106	719	3,44E-02	3,79E-02
108	720	3,74E-02	4,10E-02
107	720	3,74E-02	4,10E-02
91	720	3,74E-02	4,10E-02
92	720	3,74E-02	4,10E-02
108	721	4,05E-02	4,43E-02
93	721	4,05E-02	4,43E-02
109	721	4,05E-02	4,43E-02
92	721	4,05E-02	4,43E-02
94	722	4,50E-02	4,86E-02
93	722	4,50E-02	4,86E-02
109	722	4,50E-02	4,86E-02
110	722	4,50E-02	4,86E-02
111	723	5,39E-02	5,64E-02
94	723	5,39E-02	5,64E-02
95	723	5,39E-02	5,64E-02
110	723	5,39E-02	5,64E-02
96	724	6,79E-02	6,83E-02
112	724	6,79E-02	6,83E-02
111	724	6,79E-02	6,83E-02
95	724	6,79E-02	6,83E-02
114	725	1,52E-02	1,69E-02
98	725	1,52E-02	1,69E-02
97	725	1,52E-02	1,69E-02
113	725	1,52E-02	1,69E-02
98	726	1,57E-02	1,81E-02
99	726	1,57E-02	1,81E-02
114	726	1,57E-02	1,81E-02
115	726	1,57E-02	1,81E-02
116	727	1,68E-02	1,98E-02
115	727	1,68E-02	1,98E-02
100	727	1,68E-02	1,98E-02
99	727	1,68E-02	1,98E-02
100	728	1,82E-02	2,19E-02
116	728	1,82E-02	2,19E-02
117	728	1,82E-02	2,19E-02
101	728	1,82E-02	2,19E-02
117	729	2,00E-02	2,43E-02
101	729	2,00E-02	2,43E-02
102	729	2,00E-02	2,43E-02
118	729	2,00E-02	2,43E-02
102	730	2,21E-02	2,68E-02
118	730	2,21E-02	2,68E-02
119	730	2,21E-02	2,68E-02
103	730	2,21E-02	2,68E-02
119	731	2,45E-02	2,94E-02
120	731	2,45E-02	2,94E-02
104	731	2,45E-02	2,94E-02
103	731	2,45E-02	2,94E-02
121	732	2,69E-02	3,20E-02
104	732	2,69E-02	3,20E-02
105	732	2,69E-02	3,20E-02
120	732	2,69E-02	3,20E-02
121	733	2,95E-02	3,47E-02
122	733	2,95E-02	3,47E-02
105	733	2,95E-02	3,47E-02
106	733	2,95E-02	3,47E-02
123	734	3,22E-02	3,75E-02
122	734	3,22E-02	3,75E-02
106	734	3,22E-02	3,75E-02
107	734	3,22E-02	3,75E-02
124	735	3,50E-02	4,04E-02
108	735	3,50E-02	4,04E-02
123	735	3,50E-02	4,04E-02
107	735	3,50E-02	4,04E-02
109	736	3,86E-02	4,41E-02
125	736	3,86E-02	4,41E-02
124	736	3,86E-02	4,41E-02
108	736	3,86E-02	4,41E-02
110	737	4,35E-02	4,92E-02
109	737	4,35E-02	4,92E-02
126	737	4,35E-02	4,92E-02
125	737	4,35E-02	4,92E-02
111	738	5,32E-02	5,89E-02
126	738	5,32E-02	5,89E-02
110	738	5,32E-02	5,89E-02
127	738	5,32E-02	5,89E-02
128	739	7,44E-02	7,92E-02
127	739	7,44E-02	7,92E-02
112	739	7,44E-02	7,92E-02
111	739	7,44E-02	7,92E-02
113	740	2,18E-02	2,46E-02
129	740	2,18E-02	2,46E-02
130	740	2,18E-02	2,46E-02
114	740	2,18E-02	2,46E-02
114	741	2,47E-02	2,54E-02
115	741	2,47E-02	2,54E-02
130	741	2,47E-02	2,54E-02
131	741	2,47E-02	2,54E-02
131	742	2,74E-02	2,78E-02
116	742	2,74E-02	2,78E-02
115	742	2,74E-02	2,78E-02
132	742	2,74E-02	2,78E-02
117	743	3,06E-02	3,12E-02
133	743	3,06E-02	3,12E-02
132	743	3,06E-02	3,12E-02
116	743	3,06E-02	3,12E-02
133	744	3,43E-02	3,50E-02
117	744	3,43E-02	3,50E-02
134	744	3,43E-02	3,50E-02
118	744	3,43E-02	3,50E-02
134	745	3,83E-02	3,91E-02
118	745	3,83E-02	3,91E-02
135	745	3,83E-02	3,91E-02
119	745	3,83E-02	3,91E-02
135	746	4,25E-02	4,33E-02
119	746	4,25E-02	4,33E-02
120	746	4,25E-02	4,33E-02
136	746	4,25E-02	4,33E-02
136	747	4,68E-02	4,76E-02
120	747	4,68E-02	4,76E-02
121	747	4,68E-02	4,76E-02
137	747	4,68E-02	4,76E-02
122	748	5,12E-02	5,20E-02
121	748	5,12E-02	5,20E-02
137	748	5,12E-02	5,20E-02
138	748	5,12E-02	5,20E-02
139	749	5,55E-02	5,63E-02
123	749	5,55E-02	5,63E-02
122	749	5,55E-02	5,63E-02
138	749	5,55E-02	5,63E-02
140	750	5,98E-02	6,04E-02
123	750	5,98E-02	6,04E-02
124	750	5,98E-02	6,04E-02
139	750	5,98E-02	6,04E-02
140	751	6,39E-02	6,45E-02
124	751	6,39E-02	6,45E-02
141	751	6,39E-02	6,45E-02
125	751	6,39E-02	6,45E-02
142	752	6,82E-02	6,84E-02
125	752	6,82E-02	6,84E-02
141	752	6,82E-02	6,84E-02
126	752	6,82E-02	6,84E-02
143	753	7,26E-02	7,28E-02
126	753	7,26E-02	7,28E-02
142	753	7,26E-02	7,28E-02
127	753	7,26E-02	7,28E-02
144	754	7,96E-02	8,13E-02
143	754	7,96E-02	8,13E-02
128	754	7,96E-02	8,13E-02
127	754	7,96E-02	8,13E-02
146	755	2,87E-02	3,09E-02
130	755	2,87E-02	3,09E-02
129	755	2,87E-02	3,09E-02
145	755	2,87E-02	3,09E-02
131	756	3,23E-02	3,18E-02
146	756	3,23E-02	3,18E-02
130	756	3,23E-02	3,18E-02
147	756	3,23E-02	3,18E-02
132	757	3,70E-02	3,51E-02
131	757	3,70E-02	3,51E-02
148	757	3,70E-02	3,51E-02
147	757	3,70E-02	3,51E-02
133	758	4,23E-02	3,98E-02
148	758	4,23E-02	3,98E-02
149	758	4,23E-02	3,98E-02
132	758	4,23E-02	3,98E-02
150	759	4,80E-02	4,52E-02
134	759	4,80E-02	4,52E-02
133	759	4,80E-02	4,52E-02
149	759	4,80E-02	4,52E-02
150	760	5,41E-02	5,11E-02
151	760	5,41E-02	5,11E-02
134	760	5,41E-02	5,11E-02
135	760	5,41E-02	5,11E-02
136	761	6,04E-02	5,73E-02
151	761	6,04E-02	5,73E-02
135	761	6,04E-02	5,73E-02
152	761	6,04E-02	5,73E-02
152	762	6,68E-02	6,36E-02
153	762	6,68E-02	6,36E-02
136	762	6,68E-02	6,36E-02
137	762	6,68E-02	6,36E-02
137	763	7,33E-02	7,00E-02
154	763	7,33E-02	7,00E-02
153	763	7,33E-02	7,00E-02
138	763	7,33E-02	7,00E-02
139	764	7,98E-02	7,64E-02
154	764	7,98E-02	7,64E-02
155	764	7,98E-02	7,64E-02
138	764	7,98E-02	7,64E-02
155	765	8,61E-02	8,25E-02
156	765	8,61E-02	8,25E-02
139	765	8,61E-02	8,25E-02
140	765	8,61E-02	8,25E-02
140	766	9,18E-02	8,80E-02
141	766	9,18E-02	8,80E-02
156	766	9,18E-02	8,80E-02
157	766	9,18E-02	8,80E-02
141	767	9,59E-02	9,20E-02
158	767	9,59E-02	9,20E-02
142	767	9,59E-02	9,20E-02
157	767	9,59E-02	9,20E-02
143	768	9,64E-02	9,24E-02
158	768	9,64E-02	9,24E-02
159	768	9,64E-02	9,24E-02
142	768	9,64E-02	9,24E-02
160	769	9,02E-02	8,69E-02
143	769	9,02E-02	8,69E-02
144	769	9,02E-02	8,69E-02
159	769	9,02E-02	8,69E-02
145	770	2,55E-02	2,57E-02
161	770	2,55E-02	2,57E-02
162	770	2,55E-02	2,57E-02
146	770	2,55E-02	2,57E-02
163	771	2,80E-02	2,88E-02
147	771	2,80E-02	2,88E-02
146	771	2,80E-02	2,88E-02
162	771	2,80E-02	2,88E-02
147	772	3,28E-02	3,27E-02
148	772	3,28E-02	3,27E-02
164	772	3,28E-02	3,27E-02
163	772	3,28E-02	3,27E-02
149	773	3,85E-02	3,80E-02
165	773	3,85E-02	3,80E-02
148	773	3,85E-02	3,80E-02
164	773	3,85E-02	3,80E-02
149	774	4,46E-02	4,40E-02
150	774	4,46E-02	4,40E-02
166	774	4,46E-02	4,40E-02
165	774	4,46E-02	4,40E-02
151	775	5,11E-02	5,05E-02
166	775	5,11E-02	5,05E-02
150	775	5,11E-02	5,05E-02
167	775	5,11E-02	5,05E-02
151	776	5,79E-02	5,72E-02
168	776	5,79E-02	5,72E-02
167	776	5,79E-02	5,72E-02
152	776	5,79E-02	5,72E-02
153	777	6,48E-02	6,41E-02
168	777	6,48E-02	6,41E-02
169	777	6,48E-02	6,41E-02
152	777	6,48E-02	6,41E-02
154	778	7,18E-02	7,12E-02
170	778	7,18E-02	7,12E-02
169	778	7,18E-02	7,12E-02
153	778	7,18E-02	7,12E-02
154	779	7,91E-02	7,84E-02
155	779	7,91E-02	7,84E-02
170	779	7,91E-02	7,84E-02
171	779	7,91E-02	7,84E-02
155	780	8,63E-02	8,57E-02
171	780	8,63E-02	8,57E-02
156	780	8,63E-02	8,57E-02
172	780	8,63E-02	8,57E-02
173	781	9,35E-02	9,30E-02
157	781	9,35E-02	9,30E-02
156	781	9,35E-02	9,30E-02
172	781	9,35E-02	9,30E-02
174	782	9,97E-02	9,95E-02
158	782	9,97E-02	9,95E-02
173	782	9,97E-02	9,95E-02
157	782	9,97E-02	9,95E-02
159	783	1,02E-01	1,03E-01
174	783	1,02E-01	1,03E-01
175	783	1,02E-01	1,03E-01
158	783	1,02E-01	1,03E-01
176	784	1,03E-01	1,04E-01
175	784	1,03E-01	1,04E-01
160	784	1,03E-01	1,04E-01
159	784	1,03E-01	1,04E-01
178	785	2,16E-02	2,04E-02
162	785	2,16E-02	2,04E-02
177	785	2,16E-02	2,04E-02
161	785	2,16E-02	2,04E-02
178	786	2,44E-02	2,53E-02
162	786	2,44E-02	2,53E-02
179	786	2,44E-02	2,53E-02
163	786	2,44E-02	2,53E-02
179	787	2,90E-02	3,08E-02
180	787	2,90E-02	3,08E-02
163	787	2,90E-02	3,08E-02
164	787	2,90E-02	3,08E-02
181	788	3,49E-02	3,67E-02
164	788	3,49E-02	3,67E-02
180	788	3,49E-02	3,67E-02
165	788	3,49E-02	3,67E-02
166	789	4,15E-02	4,33E-02
182	789	4,15E-02	4,33E-02
165	789	4,15E-02	4,33E-02
181	789	4,15E-02	4,33E-02
182	790	4,83E-02	5,02E-02
167	790	4,83E-02	5,02E-02
166	790	4,83E-02	5,02E-02
183	790	4,83E-02	5,02E-02
167	791	5,53E-02	5,73E-02
184	791	5,53E-02	5,73E-02
168	791	5,53E-02	5,73E-02
183	791	5,53E-02	5,73E-02
184	792	6,25E-02	6,45E-02
185	792	6,25E-02	6,45E-02
168	792	6,25E-02	6,45E-02
169	792	6,25E-02	6,45E-02
169	793	6,99E-02	7,19E-02
170	793	6,99E-02	7,19E-02
185	793	6,99E-02	7,19E-02
186	793	6,99E-02	7,19E-02
170	794	7,74E-02	7,95E-02
171	794	7,74E-02	7,95E-02
186	794	7,74E-02	7,95E-02
187	794	7,74E-02	7,95E-02
172	795	8,51E-02	8,74E-02
187	795	8,51E-02	8,74E-02
188	795	8,51E-02	8,74E-02
171	795	8,51E-02	8,74E-02
189	796	9,29E-02	9,54E-02
188	796	9,29E-02	9,54E-02
173	796	9,29E-02	9,54E-02
172	796	9,29E-02	9,54E-02
190	797	1,01E-01	1,04E-01
173	797	1,01E-01	1,04E-01
189	797	1,01E-01	1,04E-01
174	797	1,01E-01	1,04E-01
175	798	1,08E-01	1,11E-01
190	798	1,08E-01	1,11E-01
174	798	1,08E-01	1,11E-01
191	798	1,08E-01	1,11E-01
176	799	1,16E-01	1,19E-01
175	799	1,16E-01	1,19E-01
192	799	1,16E-01	1,19E-01
191	799	1,16E-01	1,19E-01
193	800	1,71E-02	1,70E-02
194	800	1,71E-02	1,70E-02
177	800	1,71E-02	1,70E-02
178	800	1,71E-02	1,70E-02
179	801	2,01E-02	2,26E-02
194	801	2,01E-02	2,26E-02
195	801	2,01E-02	2,26E-02
178	801	2,01E-02	2,26E-02
196	802	2,53E-02	2,92E-02
195	802	2,53E-02	2,92E-02
179	802	2,53E-02	2,92E-02
180	802	2,53E-02	2,92E-02
180	803	3,15E-02	3,59E-02
197	803	3,15E-02	3,59E-02
181	803	3,15E-02	3,59E-02
196	803	3,15E-02	3,59E-02
197	804	3,83E-02	4,29E-02
198	804	3,83E-02	4,29E-02
181	804	3,83E-02	4,29E-02
182	804	3,83E-02	4,29E-02
198	805	4,54E-02	5,00E-02
182	805	4,54E-02	5,00E-02
183	805	4,54E-02	5,00E-02
199	805	4,54E-02	5,00E-02
199	806	5,26E-02	5,73E-02
183	806	5,26E-02	5,73E-02
200	806	5,26E-02	5,73E-02
184	806	5,26E-02	5,73E-02
200	807	6,00E-02	6,47E-02
184	807	6,00E-02	6,47E-02
201	807	6,00E-02	6,47E-02
185	807	6,00E-02	6,47E-02
201	808	6,74E-02	7,22E-02
202	808	6,74E-02	7,22E-02
185	808	6,74E-02	7,22E-02
186	808	6,74E-02	7,22E-02
203	809	7,49E-02	7,97E-02
186	809	7,49E-02	7,97E-02
202	809	7,49E-02	7,97E-02
187	809	7,49E-02	7,97E-02
203	810	8,25E-02	8,74E-02
204	810	8,25E-02	8,74E-02
188	810	8,25E-02	8,74E-02
187	810	8,25E-02	8,74E-02
188	811	9,04E-02	9,55E-02
205	811	9,04E-02	9,55E-02
204	811	9,04E-02	9,55E-02
189	811	9,04E-02	9,55E-02
205	812	9,91E-02	1,04E-01
206	812	9,91E-02	1,04E-01
190	812	9,91E-02	1,04E-01
189	812	9,91E-02	1,04E-01
191	813	1,12E-01	1,16E-01
206	813	1,12E-01	1,16E-01
207	813	1,12E-01	1,16E-01
190	813	1,12E-01	1,16E-01
191	814	1,28E-01	1,30E-01
207	814	1,28E-01	1,30E-01
208	814	1,28E-01	1,30E-01
192	814	1,28E-01	1,30E-01
193	815	1,18E-02	1,46E-02
210	815	1,18E-02	1,46E-02
194	815	1,18E-02	1,46E-02
209	815	1,18E-02	1,46E-02
194	816	1,57E-02	2,13E-02
195	816	1,57E-02	2,13E-02
210	816	1,57E-02	2,13E-02
211	816	1,57E-02	2,13E-02
212	817	2,16E-02	2,82E-02
195	817	2,16E-02	2,82E-02
196	817	2,16E-02	2,82E-02
211	817	2,16E-02	2,82E-02
197	818	2,82E-02	3,55E-02
212	818	2,82E-02	3,55E-02
213	818	2,82E-02	3,55E-02
196	818	2,82E-02	3,55E-02
198	819	3,53E-02	4,27E-02
197	819	3,53E-02	4,27E-02
213	819	3,53E-02	4,27E-02
214	819	3,53E-02	4,27E-02
199	820	4,25E-02	5,00E-02
214	820	4,25E-02	5,00E-02
198	820	4,25E-02	5,00E-02
215	820	4,25E-02	5,00E-02
199	821	4,98E-02	5,74E-02
200	821	4,98E-02	5,74E-02
215	821	4,98E-02	5,74E-02
216	821	4,98E-02	5,74E-02
216	822	5,71E-02	6,47E-02
217	822	5,71E-02	6,47E-02
201	822	5,71E-02	6,47E-02
200	822	5,71E-02	6,47E-02
217	823	6,45E-02	7,20E-02
202	823	6,45E-02	7,20E-02
201	823	6,45E-02	7,20E-02
218	823	6,45E-02	7,20E-02
202	824	7,18E-02	7,93E-02
219	824	7,18E-02	7,93E-02
218	824	7,18E-02	7,93E-02
203	824	7,18E-02	7,93E-02
220	825	7,92E-02	8,66E-02
204	825	7,92E-02	8,66E-02
219	825	7,92E-02	8,66E-02
203	825	7,92E-02	8,66E-02
220	826	8,71E-02	9,44E-02
221	826	8,71E-02	9,44E-02
205	826	8,71E-02	9,44E-02
204	826	8,71E-02	9,44E-02
221	827	9,60E-02	1,03E-01
206	827	9,60E-02	1,03E-01
222	827	9,60E-02	1,03E-01
205	827	9,60E-02	1,03E-01
222	828	1,09E-01	1,16E-01
223	828	1,09E-01	1,16E-01
206	828	1,09E-01	1,16E-01
207	828	1,09E-01	1,16E-01
223	829	1,33E-01	1,39E-01
224	829	1,33E-01	1,39E-01
208	829	1,33E-01	1,39E-01
207	829	1,33E-01	1,39E-01
226	830	2,47E-02	2,92E-02
209	830	2,47E-02	2,92E-02
225	830	2,47E-02	2,92E-02
210	830	2,47E-02	2,92E-02
227	831	3,07E-02	3,37E-02
210	831	3,07E-02	3,37E-02
226	831	3,07E-02	3,37E-02
211	831	3,07E-02	3,37E-02
228	832	3,73E-02	4,05E-02
212	832	3,73E-02	4,05E-02
211	832	3,73E-02	4,05E-02
227	832	3,73E-02	4,05E-02
228	833	4,49E-02	4,82E-02
229	833	4,49E-02	4,82E-02
212	833	4,49E-02	4,82E-02
213	833	4,49E-02	4,82E-02
229	834	5,30E-02	5,63E-02
213	834	5,30E-02	5,63E-02
214	834	5,30E-02	5,63E-02
230	834	5,30E-02	5,63E-02
215	835	6,14E-02	6,47E-02
214	835	6,14E-02	6,47E-02
230	835	6,14E-02	6,47E-02
231	835	6,14E-02	6,47E-02
216	836	7,00E-02	7,32E-02
231	836	7,00E-02	7,32E-02
232	836	7,00E-02	7,32E-02
215	836	7,00E-02	7,32E-02
232	837	7,86E-02	8,17E-02
233	837	7,86E-02	8,17E-02
217	837	7,86E-02	8,17E-02
216	837	7,86E-02	8,17E-02
233	838	8,72E-02	9,01E-02
234	838	8,72E-02	9,01E-02
217	838	8,72E-02	9,01E-02
218	838	8,72E-02	9,01E-02
235	839	9,55E-02	9,84E-02
234	839	9,55E-02	9,84E-02
218	839	9,55E-02	9,84E-02
219	839	9,55E-02	9,84E-02
220	840	1,04E-01	1,06E-01
235	840	1,04E-01	1,06E-01
236	840	1,04E-01	1,06E-01
219	840	1,04E-01	1,06E-01
236	841	1,12E-01	1,14E-01
237	841	1,12E-01	1,14E-01
220	841	1,12E-01	1,14E-01
221	841	1,12E-01	1,14E-01
222	842	1,19E-01	1,21E-01
237	842	1,19E-01	1,21E-01
238	842	1,19E-01	1,21E-01
221	842	1,19E-01	1,21E-01
222	843	1,27E-01	1,28E-01
223	843	1,27E-01	1,28E-01
238	843	1,27E-01	1,28E-01
239	843	1,27E-01	1,28E-01
240	844	1,38E-01	1,40E-01
224	844	1,38E-01	1,40E-01
223	844	1,38E-01	1,40E-01
239	844	1,38E-01	1,40E-01
242	845	3,80E-02	4,22E-02
241	845	3,80E-02	4,22E-02
225	845	3,80E-02	4,22E-02
226	845	3,80E-02	4,22E-02
227	846	4,41E-02	4,48E-02
242	846	4,41E-02	4,48E-02
226	846	4,41E-02	4,48E-02
243	846	4,41E-02	4,48E-02
227	847	5,20E-02	5,10E-02
243	847	5,20E-02	5,10E-02
244	847	5,20E-02	5,10E-02
228	847	5,20E-02	5,10E-02
228	848	6,08E-02	5,94E-02
229	848	6,08E-02	5,94E-02
244	848	6,08E-02	5,94E-02
245	848	6,08E-02	5,94E-02
230	849	7,03E-02	6,87E-02
229	849	7,03E-02	6,87E-02
245	849	7,03E-02	6,87E-02
246	849	7,03E-02	6,87E-02
247	850	8,04E-02	7,86E-02
230	850	8,04E-02	7,86E-02
231	850	8,04E-02	7,86E-02
246	850	8,04E-02	7,86E-02
232	851	9,06E-02	8,88E-02
248	851	9,06E-02	8,88E-02
231	851	9,06E-02	8,88E-02
247	851	9,06E-02	8,88E-02
249	852	1,01E-01	9,92E-02
248	852	1,01E-01	9,92E-02
232	852	1,01E-01	9,92E-02
233	852	1,01E-01	9,92E-02
250	853	1,12E-01	1,10E-01
233	853	1,12E-01	1,10E-01
249	853	1,12E-01	1,10E-01
234	853	1,12E-01	1,10E-01
250	854	1,22E-01	1,20E-01
235	854	1,22E-01	1,20E-01
251	854	1,22E-01	1,20E-01
234	854	1,22E-01	1,20E-01
235	855	1,32E-01	1,29E-01
251	855	1,32E-01	1,29E-01
252	855	1,32E-01	1,29E-01
236	855	1,32E-01	1,29E-01
237	856	1,41E-01	1,38E-01
236	856	1,41E-01	1,38E-01
252	856	1,41E-01	1,38E-01
253	856	1,41E-01	1,38E-01
253	857	1,48E-01	1,45E-01
237	857	1,48E-01	1,45E-01
254	857	1,48E-01	1,45E-01
238	857	1,48E-01	1,45E-01
238	858	1,52E-01	1,49E-01
255	858	1,52E-01	1,49E-01
254	858	1,52E-01	1,49E-01
239	858	1,52E-01	1,49E-01
239	859	1,50E-01	1,47E-01
256	859	1,50E-01	1,47E-01
240	859	1,50E-01	1,47E-01
255	859	1,50E-01	1,47E-01
241	860	3,28E-02	3,49E-02
242	860	3,28E-02	3,49E-02
257	860	3,28E-02	3,49E-02
258	860	3,28E-02	3,49E-02
258	861	3,79E-02	4,05E-02
259	861	3,79E-02	4,05E-02
242	861	3,79E-02	4,05E-02
243	861	3,79E-02	4,05E-02
244	862	4,66E-02	4,76E-02
260	862	4,66E-02	4,76E-02
243	862	4,66E-02	4,76E-02
259	862	4,66E-02	4,76E-02
260	863	5,65E-02	5,68E-02
261	863	5,65E-02	5,68E-02
244	863	5,65E-02	5,68E-02
245	863	5,65E-02	5,68E-02
262	864	6,69E-02	6,70E-02
245	864	6,69E-02	6,70E-02
261	864	6,69E-02	6,70E-02
246	864	6,69E-02	6,70E-02
246	865	7,77E-02	7,78E-02
262	865	7,77E-02	7,78E-02
247	865	7,77E-02	7,78E-02
263	865	7,77E-02	7,78E-02
264	866	8,88E-02	8,88E-02
263	866	8,88E-02	8,88E-02
248	866	8,88E-02	8,88E-02
247	866	8,88E-02	8,88E-02
265	867	1,00E-01	1,00E-01
264	867	1,00E-01	1,00E-01
249	867	1,00E-01	1,00E-01
248	867	1,00E-01	1,00E-01
249	868	1,11E-01	1,12E-01
266	868	1,11E-01	1,12E-01
265	868	1,11E-01	1,12E-01
250	868	1,11E-01	1,12E-01
251	869	1,23E-01	1,23E-01
250	869	1,23E-01	1,23E-01
266	869	1,23E-01	1,23E-01
267	869	1,23E-01	1,23E-01
268	870	1,34E-01	1,35E-01
267	870	1,34E-01	1,35E-01
251	870	1,34E-01	1,35E-01
252	870	1,34E-01	1,35E-01
269	871	1,45E-01	1,46E-01
253	871	1,45E-01	1,46E-01
268	871	1,45E-01	1,46E-01
252	871	1,45E-01	1,46E-01
253	872	1,55E-01	1,56E-01
254	872	1,55E-01	1,56E-01
270	872	1,55E-01	1,56E-01
269	872	1,55E-01	1,56E-01
271	873	1,61E-01	1,63E-01
255	873	1,61E-01	1,63E-01
270	873	1,61E-01	1,63E-01
254	873	1,61E-01	1,63E-01
271	874	1,64E-01	1,67E-01
255	874	1,64E-01	1,67E-01
272	874	1,64E-01	1,67E-01
256	874	1,64E-01	1,67E-01
273	875	2,69E-02	2,73E-02
258	875	2,69E-02	2,73E-02
274	875	2,69E-02	2,73E-02
257	875	2,69E-02	2,73E-02
258	876	3,29E-02	3,55E-02
259	876	3,29E-02	3,55E-02
275	876	3,29E-02	3,55E-02
274	876	3,29E-02	3,55E-02
275	877	4,20E-02	4,47E-02
260	877	4,20E-02	4,47E-02
259	877	4,20E-02	4,47E-02
276	877	4,20E-02	4,47E-02
276	878	5,26E-02	5,48E-02
260	878	5,26E-02	5,48E-02
261	878	5,26E-02	5,48E-02
277	878	5,26E-02	5,48E-02
262	879	6,37E-02	6,58E-02
261	879	6,37E-02	6,58E-02
278	879	6,37E-02	6,58E-02
277	879	6,37E-02	6,58E-02
263	880	7,51E-02	7,72E-02
279	880	7,51E-02	7,72E-02
262	880	7,51E-02	7,72E-02
278	880	7,51E-02	7,72E-02
263	881	8,68E-02	8,89E-02
280	881	8,68E-02	8,89E-02
279	881	8,68E-02	8,89E-02
264	881	8,68E-02	8,89E-02
280	882	9,86E-02	1,01E-01
281	882	9,86E-02	1,01E-01
264	882	9,86E-02	1,01E-01
265	882	9,86E-02	1,01E-01
265	883	1,11E-01	1,13E-01
282	883	1,11E-01	1,13E-01
266	883	1,11E-01	1,13E-01
281	883	1,11E-01	1,13E-01
266	884	1,23E-01	1,25E-01
282	884	1,23E-01	1,25E-01
267	884	1,23E-01	1,25E-01
283	884	1,23E-01	1,25E-01
267	885	1,35E-01	1,38E-01
268	885	1,35E-01	1,38E-01
283	885	1,35E-01	1,38E-01
284	885	1,35E-01	1,38E-01
268	886	1,47E-01	1,51E-01
285	886	1,47E-01	1,51E-01
269	886	1,47E-01	1,51E-01
284	886	1,47E-01	1,51E-01
286	887	1,59E-01	1,63E-01
270	887	1,59E-01	1,63E-01
269	887	1,59E-01	1,63E-01
285	887	1,59E-01	1,63E-01
286	888	1,69E-01	1,74E-01
287	888	1,69E-01	1,74E-01
271	888	1,69E-01	1,74E-01
270	888	1,69E-01	1,74E-01
287	889	1,79E-01	1,82E-01
288	889	1,79E-01	1,82E-01
271	889	1,79E-01	1,82E-01
272	889	1,79E-01	1,82E-01
289	890	2,08E-02	2,21E-02
290	890	2,08E-02	2,21E-02
273	890	2,08E-02	2,21E-02
274	890	2,08E-02	2,21E-02
291	891	2,81E-02	3,14E-02
275	891	2,81E-02	3,14E-02
274	891	2,81E-02	3,14E-02
290	891	2,81E-02	3,14E-02
291	892	3,81E-02	4,22E-02
275	892	3,81E-02	4,22E-02
292	892	3,81E-02	4,22E-02
276	892	3,81E-02	4,22E-02
292	893	4,92E-02	5,34E-02
277	893	4,92E-02	5,34E-02
293	893	4,92E-02	5,34E-02
276	893	4,92E-02	5,34E-02
293	894	6,07E-02	6,49E-02
277	894	6,07E-02	6,49E-02
294	894	6,07E-02	6,49E-02
278	894	6,07E-02	6,49E-02
279	895	7,25E-02	7,67E-02
294	895	7,25E-02	7,67E-02
278	895	7,25E-02	7,67E-02
295	895	7,25E-02	7,67E-02
280	896	8,44E-02	8,87E-02
279	896	8,44E-02	8,87E-02
295	896	8,44E-02	8,87E-02
296	896	8,44E-02	8,87E-02
281	897	9,65E-02	1,01E-01
280	897	9,65E-02	1,01E-01
296	897	9,65E-02	1,01E-01
297	897	9,65E-02	1,01E-01
282	898	1,09E-01	1,13E-01
297	898	1,09E-01	1,13E-01
281	898	1,09E-01	1,13E-01
298	898	1,09E-01	1,13E-01
282	899	1,21E-01	1,26E-01
283	899	1,21E-01	1,26E-01
298	899	1,21E-01	1,26E-01
299	899	1,21E-01	1,26E-01
283	900	1,34E-01	1,39E-01
299	900	1,34E-01	1,39E-01
284	900	1,34E-01	1,39E-01
300	900	1,34E-01	1,39E-01
284	901	1,46E-01	1,52E-01
285	901	1,46E-01	1,52E-01
301	901	1,46E-01	1,52E-01
300	901	1,46E-01	1,52E-01
286	902	1,61E-01	1,66E-01
302	902	1,61E-01	1,66E-01
285	902	1,61E-01	1,66E-01
301	902	1,61E-01	1,66E-01
287	903	1,76E-01	1,81E-01
302	903	1,76E-01	1,81E-01
303	903	1,76E-01	1,81E-01
286	903	1,76E-01	1,81E-01
287	904	1,91E-01	1,95E-01
288	904	1,91E-01	1,95E-01
304	904	1,91E-01	1,95E-01
303	904	1,91E-01	1,95E-01
305	905	1,50E-02	1,78E-02
290	905	1,50E-02	1,78E-02
306	905	1,50E-02	1,78E-02
289	905	1,50E-02	1,78E-02
306	906	2,39E-02	2,89E-02
307	906	2,39E-02	2,89E-02
290	906	2,39E-02	2,89E-02
291	906	2,39E-02	2,89E-02
292	907	3,47E-02	4,05E-02
291	907	3,47E-02	4,05E-02
308	907	3,47E-02	4,05E-02
307	907	3,47E-02	4,05E-02
308	908	4,62E-02	5,25E-02
309	908	4,62E-02	5,25E-02
293	908	4,62E-02	5,25E-02
292	908	4,62E-02	5,25E-02
294	909	5,80E-02	6,43E-02
310	909	5,80E-02	6,43E-02
309	909	5,80E-02	6,43E-02
293	909	5,80E-02	6,43E-02
311	910	6,98E-02	7,62E-02
295	910	6,98E-02	7,62E-02
294	910	6,98E-02	7,62E-02
310	910	6,98E-02	7,62E-02
296	911	8,18E-02	8,82E-02
312	911	8,18E-02	8,82E-02
311	911	8,18E-02	8,82E-02
295	911	8,18E-02	8,82E-02
296	912	9,37E-02	1,00E-01
312	912	9,37E-02	1,00E-01
313	912	9,37E-02	1,00E-01
297	912	9,37E-02	1,00E-01
297	913	1,06E-01	1,12E-01
314	913	1,06E-01	1,12E-01
298	913	1,06E-01	1,12E-01
313	913	1,06E-01	1,12E-01
314	914	1,18E-01	1,24E-01
298	914	1,18E-01	1,24E-01
299	914	1,18E-01	1,24E-01
315	914	1,18E-01	1,24E-01
299	915	1,30E-01	1,37E-01
315	915	1,30E-01	1,37E-01
316	915	1,30E-01	1,37E-01
300	915	1,30E-01	1,37E-01
316	916	1,43E-01	1,50E-01
317	916	1,43E-01	1,50E-01
301	916	1,43E-01	1,50E-01
300	916	1,43E-01	1,50E-01
302	917	1,58E-01	1,65E-01
301	917	1,58E-01	1,65E-01
317	917	1,58E-01	1,65E-01
318	917	1,58E-01	1,65E-01
302	918	1,79E-01	1,84E-01
318	918	1,79E-01	1,84E-01
303	918	1,79E-01	1,84E-01
319	918	1,79E-01	1,84E-01
320	919	2,02E-01	2,05E-01
303	919	2,02E-01	2,05E-01
319	919	2,02E-01	2,05E-01
304	919	2,02E-01	2,05E-01
306	920	1,05E-02	1,57E-02
322	920	1,05E-02	1,57E-02
305	920	1,05E-02	1,57E-02
321	920	1,05E-02	1,57E-02
307	921	2,09E-02	2,79E-02
323	921	2,09E-02	2,79E-02
322	921	2,09E-02	2,79E-02
306	921	2,09E-02	2,79E-02
324	922	3,21E-02	4,02E-02
323	922	3,21E-02	4,02E-02
307	922	3,21E-02	4,02E-02
308	922	3,21E-02	4,02E-02
308	923	4,37E-02	5,22E-02
325	923	4,37E-02	5,22E-02
309	923	4,37E-02	5,22E-02
324	923	4,37E-02	5,22E-02
310	924	5,54E-02	6,41E-02
325	924	5,54E-02	6,41E-02
326	924	5,54E-02	6,41E-02
309	924	5,54E-02	6,41E-02
326	925	6,72E-02	7,59E-02
311	925	6,72E-02	7,59E-02
310	925	6,72E-02	7,59E-02
327	925	6,72E-02	7,59E-02
311	926	7,90E-02	8,77E-02
327	926	7,90E-02	8,77E-02
328	926	7,90E-02	8,77E-02
312	926	7,90E-02	8,77E-02
312	927	9,07E-02	9,93E-02
328	927	9,07E-02	9,93E-02
329	927	9,07E-02	9,93E-02
313	927	9,07E-02	9,93E-02
329	928	1,02E-01	1,11E-01
330	928	1,02E-01	1,11E-01
313	928	1,02E-01	1,11E-01
314	928	1,02E-01	1,11E-01
314	929	1,14E-01	1,23E-01
330	929	1,14E-01	1,23E-01
315	929	1,14E-01	1,23E-01
331	929	1,14E-01	1,23E-01
316	930	1,26E-01	1,34E-01
315	930	1,26E-01	1,34E-01
331	930	1,26E-01	1,34E-01
332	930	1,26E-01	1,34E-01
332	931	1,39E-01	1,47E-01
316	931	1,39E-01	1,47E-01
333	931	1,39E-01	1,47E-01
317	931	1,39E-01	1,47E-01
317	932	1,53E-01	1,61E-01
333	932	1,53E-01	1,61E-01
334	932	1,53E-01	1,61E-01
318	932	1,53E-01	1,61E-01
318	933	1,73E-01	1,81E-01
334	933	1,73E-01	1,81E-01
335	933	1,73E-01	1,81E-01
319	933	1,73E-01	1,81E-01
319	934	2,05E-01	2,11E-01
335	934	2,05E-01	2,11E-01
320	934	2,05E-01	2,11E-01
336	934	2,05E-01	2,11E-01
338	935	2,92E-02	3,49E-02
337	935	2,92E-02	3,49E-02
321	935	2,92E-02	3,49E-02
322	935	2,92E-02	3,49E-02
338	936	3,97E-02	4,36E-02
339	936	3,97E-02	4,36E-02
323	936	3,97E-02	4,36E-02
322	936	3,97E-02	4,36E-02
324	937	5,07E-02	5,47E-02
340	937	5,07E-02	5,47E-02
339	937	5,07E-02	5,47E-02
323	937	5,07E-02	5,47E-02
340	938	6,26E-02	6,68E-02
324	938	6,26E-02	6,68E-02
325	938	6,26E-02	6,68E-02
341	938	6,26E-02	6,68E-02
325	939	7,51E-02	7,94E-02
326	939	7,51E-02	7,94E-02
341	939	7,51E-02	7,94E-02
342	939	7,51E-02	7,94E-02
342	940	8,79E-02	9,21E-02
343	940	8,79E-02	9,21E-02
326	940	8,79E-02	9,21E-02
327	940	8,79E-02	9,21E-02
343	941	1,01E-01	1,05E-01
328	941	1,01E-01	1,05E-01
327	941	1,01E-01	1,05E-01
344	941	1,01E-01	1,05E-01
329	942	1,14E-01	1,18E-01
345	942	1,14E-01	1,18E-01
344	942	1,14E-01	1,18E-01
328	942	1,14E-01	1,18E-01
346	943	1,27E-01	1,31E-01
329	943	1,27E-01	1,31E-01
330	943	1,27E-01	1,31E-01
345	943	1,27E-01	1,31E-01
347	944	1,39E-01	1,43E-01
330	944	1,39E-01	1,43E-01
346	944	1,39E-01	1,43E-01
331	944	1,39E-01	1,43E-01
332	945	1,52E-01	1,55E-01
347	945	1,52E-01	1,55E-01
331	945	1,52E-01	1,55E-01
348	945	1,52E-01	1,55E-01
333	946	1,64E-01	1,67E-01
348	946	1,64E-01	1,67E-01
332	946	1,64E-01	1,67E-01
349	946	1,64E-01	1,67E-01
334	947	1,77E-01	1,78E-01
350	947	1,77E-01	1,78E-01
349	947	1,77E-01	1,78E-01
333	947	1,77E-01	1,78E-01
351	948	1,90E-01	1,90E-01
350	948	1,90E-01	1,90E-01
335	948	1,90E-01	1,90E-01
334	948	1,90E-01	1,90E-01
352	949	2,07E-01	2,10E-01
335	949	2,07E-01	2,10E-01
351	949	2,07E-01	2,10E-01
336	949	2,07E-01	2,10E-01
337	950	4,58E-02	5,14E-02
353	950	4,58E-02	5,14E-02
338	950	4,58E-02	5,14E-02
354	950	4,58E-02	5,14E-02
339	951	5,50E-02	5,65E-02
338	951	5,50E-02	5,65E-02
354	951	5,50E-02	5,65E-02
355	951	5,50E-02	5,65E-02
339	952	6,67E-02	6,66E-02
340	952	6,67E-02	6,66E-02
356	952	6,67E-02	6,66E-02
355	952	6,67E-02	6,66E-02
340	953	7,98E-02	7,94E-02
357	953	7,98E-02	7,94E-02
341	953	7,98E-02	7,94E-02
356	953	7,98E-02	7,94E-02
341	954	9,37E-02	9,33E-02
358	954	9,37E-02	9,33E-02
357	954	9,37E-02	9,33E-02
342	954	9,37E-02	9,33E-02
359	955	1,08E-01	1,08E-01
358	955	1,08E-01	1,08E-01
342	955	1,08E-01	1,08E-01
343	955	1,08E-01	1,08E-01
344	956	1,23E-01	1,23E-01
343	956	1,23E-01	1,23E-01
360	956	1,23E-01	1,23E-01
359	956	1,23E-01	1,23E-01
360	957	1,38E-01	1,37E-01
344	957	1,38E-01	1,37E-01
361	957	1,38E-01	1,37E-01
345	957	1,38E-01	1,37E-01
362	958	1,53E-01	1,52E-01
345	958	1,53E-01	1,52E-01
346	958	1,53E-01	1,52E-01
361	958	1,53E-01	1,52E-01
347	959	1,68E-01	1,67E-01
363	959	1,68E-01	1,67E-01
362	959	1,68E-01	1,67E-01
346	959	1,68E-01	1,67E-01
347	960	1,82E-01	1,81E-01
363	960	1,82E-01	1,81E-01
348	960	1,82E-01	1,81E-01
364	960	1,82E-01	1,81E-01
348	961	1,96E-01	1,94E-01
364	961	1,96E-01	1,94E-01
349	961	1,96E-01	1,94E-01
365	961	1,96E-01	1,94E-01
365	962	2,08E-01	2,06E-01
349	962	2,08E-01	2,06E-01
366	962	2,08E-01	2,06E-01
350	962	2,08E-01	2,06E-01
350	963	2,17E-01	2,15E-01
351	963	2,17E-01	2,15E-01
367	963	2,17E-01	2,15E-01
366	963	2,17E-01	2,15E-01
367	964	2,21E-01	2,18E-01
368	964	2,21E-01	2,18E-01
352	964	2,21E-01	2,18E-01
351	964	2,21E-01	2,18E-01
353	965	3,82E-02	4,20E-02
369	965	3,82E-02	4,20E-02
370	965	3,82E-02	4,20E-02
354	965	3,82E-02	4,20E-02
370	966	4,67E-02	5,10E-02
355	966	4,67E-02	5,10E-02
354	966	4,67E-02	5,10E-02
371	966	4,67E-02	5,10E-02
356	967	6,00E-02	6,23E-02
355	967	6,00E-02	6,23E-02
371	967	6,00E-02	6,23E-02
372	967	6,00E-02	6,23E-02
356	968	7,46E-02	7,62E-02
373	968	7,46E-02	7,62E-02
372	968	7,46E-02	7,62E-02
357	968	7,46E-02	7,62E-02
373	969	8,98E-02	9,12E-02
357	969	8,98E-02	9,12E-02
358	969	8,98E-02	9,12E-02
374	969	8,98E-02	9,12E-02
358	970	1,05E-01	1,07E-01
359	970	1,05E-01	1,07E-01
375	970	1,05E-01	1,07E-01
374	970	1,05E-01	1,07E-01
375	971	1,21E-01	1,23E-01
359	971	1,21E-01	1,23E-01
376	971	1,21E-01	1,23E-01
360	971	1,21E-01	1,23E-01
361	972	1,37E-01	1,39E-01
376	972	1,37E-01	1,39E-01
377	972	1,37E-01	1,39E-01
360	972	1,37E-01	1,39E-01
361	973	1,54E-01	1,55E-01
377	973	1,54E-01	1,55E-01
362	973	1,54E-01	1,55E-01
378	973	1,54E-01	1,55E-01
362	974	1,70E-01	1,72E-01
363	974	1,70E-01	1,72E-01
379	974	1,70E-01	1,72E-01
378	974	1,70E-01	1,72E-01
379	975	1,86E-01	1,88E-01
363	975	1,86E-01	1,88E-01
380	975	1,86E-01	1,88E-01
364	975	1,86E-01	1,88E-01
365	976	2,02E-01	2,04E-01
364	976	2,02E-01	2,04E-01
380	976	2,02E-01	2,04E-01
381	976	2,02E-01	2,04E-01
382	977	2,17E-01	2,19E-01
365	977	2,17E-01	2,19E-01
366	977	2,17E-01	2,19E-01
381	977	2,17E-01	2,19E-01
383	978	2,28E-01	2,32E-01
367	978	2,28E-01	2,32E-01
366	978	2,28E-01	2,32E-01
382	978	2,28E-01	2,32E-01
367	979	2,37E-01	2,40E-01
368	979	2,37E-01	2,40E-01
383	979	2,37E-01	2,40E-01
384	979	2,37E-01	2,40E-01
370	980	3,01E-02	3,23E-02
369	980	3,01E-02	3,23E-02
386	980	3,01E-02	3,23E-02
385	980	3,01E-02	3,23E-02
387	981	4,04E-02	4,51E-02
371	981	4,04E-02	4,51E-02
386	981	4,04E-02	4,51E-02
370	981	4,04E-02	4,51E-02
387	982	5,45E-02	5,90E-02
372	982	5,45E-02	5,90E-02
371	982	5,45E-02	5,90E-02
388	982	5,45E-02	5,90E-02
372	983	7,03E-02	7,39E-02
388	983	7,03E-02	7,39E-02
389	983	7,03E-02	7,39E-02
373	983	7,03E-02	7,39E-02
389	984	8,64E-02	8,98E-02
374	984	8,64E-02	8,98E-02
390	984	8,64E-02	8,98E-02
373	984	8,64E-02	8,98E-02
374	985	1,03E-01	1,06E-01
390	985	1,03E-01	1,06E-01
391	985	1,03E-01	1,06E-01
375	985	1,03E-01	1,06E-01
391	986	1,19E-01	1,23E-01
392	986	1,19E-01	1,23E-01
375	986	1,19E-01	1,23E-01
376	986	1,19E-01	1,23E-01
392	987	1,36E-01	1,40E-01
393	987	1,36E-01	1,40E-01
377	987	1,36E-01	1,40E-01
376	987	1,36E-01	1,40E-01
378	988	1,53E-01	1,57E-01
393	988	1,53E-01	1,57E-01
394	988	1,53E-01	1,57E-01
377	988	1,53E-01	1,57E-01
394	989	1,70E-01	1,74E-01
378	989	1,70E-01	1,74E-01
395	989	1,70E-01	1,74E-01
379	989	1,70E-01	1,74E-01
395	990	1,88E-01	1,92E-01
396	990	1,88E-01	1,92E-01
380	990	1,88E-01	1,92E-01
379	990	1,88E-01	1,92E-01
380	991	2,05E-01	2,10E-01
396	991	2,05E-01	2,10E-01
381	991	2,05E-01	2,10E-01
397	991	2,05E-01	2,10E-01
382	992	2,22E-01	2,28E-01
381	992	2,22E-01	2,28E-01
397	992	2,22E-01	2,28E-01
398	992	2,22E-01	2,28E-01
383	993	2,38E-01	2,44E-01
382	993	2,38E-01	2,44E-01
399	993	2,38E-01	2,44E-01
398	993	2,38E-01	2,44E-01
384	994	2,52E-01	2,57E-01
400	994	2,52E-01	2,57E-01
399	994	2,52E-01	2,57E-01
383	994	2,52E-01	2,57E-01
401	995	2,23E-02	2,60E-02
386	995	2,23E-02	2,60E-02
385	995	2,23E-02	2,60E-02
402	995	2,23E-02	2,60E-02
386	996	3,48E-02	4,05E-02
403	996	3,48E-02	4,05E-02
402	996	3,48E-02	4,05E-02
387	996	3,48E-02	4,05E-02
388	997	5,04E-02	5,63E-02
387	997	5,04E-02	5,63E-02
404	997	5,04E-02	5,63E-02
403	997	5,04E-02	5,63E-02
388	998	6,67E-02	7,24E-02
404	998	6,67E-02	7,24E-02
405	998	6,67E-02	7,24E-02
389	998	6,67E-02	7,24E-02
390	999	8,34E-02	8,89E-02
406	999	8,34E-02	8,89E-02
389	999	8,34E-02	8,89E-02
405	999	8,34E-02	8,89E-02
406	1000	1,00E-01	1,06E-01
391	1000	1,00E-01	1,06E-01
390	1000	1,00E-01	1,06E-01
407	1000	1,00E-01	1,06E-01
408	1001	1,17E-01	1,23E-01
392	1001	1,17E-01	1,23E-01
407	1001	1,17E-01	1,23E-01
391	1001	1,17E-01	1,23E-01
408	1002	1,34E-01	1,40E-01
392	1002	1,34E-01	1,40E-01
393	1002	1,34E-01	1,40E-01
409	1002	1,34E-01	1,40E-01
394	1003	1,51E-01	1,57E-01
393	1003	1,51E-01	1,57E-01
409	1003	1,51E-01	1,57E-01
410	1003	1,51E-01	1,57E-01
395	1004	1,68E-01	1,75E-01
410	1004	1,68E-01	1,75E-01
411	1004	1,68E-01	1,75E-01
394	1004	1,68E-01	1,75E-01
395	1005	1,86E-01	1,93E-01
412	1005	1,86E-01	1,93E-01
396	1005	1,86E-01	1,93E-01
411	1005	1,86E-01	1,93E-01
397	1006	2,04E-01	2,11E-01
413	1006	2,04E-01	2,11E-01
412	1006	2,04E-01	2,11E-01
396	1006	2,04E-01	2,11E-01
397	1007	2,24E-01	2,31E-01
413	1007	2,24E-01	2,31E-01
414	1007	2,24E-01	2,31E-01
398	1007	2,24E-01	2,31E-01
415	1008	2,45E-01	2,52E-01
398	1008	2,45E-01	2,52E-01
399	1008	2,45E-01	2,52E-01
414	1008	2,45E-01	2,52E-01
399	1009	2,64E-01	2,70E-01
416	1009	2,64E-01	2,70E-01
400	1009	2,64E-01	2,70E-01
415	1009	2,64E-01	2,70E-01
402	1010	1,57E-02	2,24E-02
401	1010	1,57E-02	2,24E-02
417	1010	1,57E-02	2,24E-02
418	1010	1,57E-02	2,24E-02
418	1011	3,10E-02	3,83E-02
402	1011	3,10E-02	3,83E-02
403	1011	3,10E-02	3,83E-02
419	1011	3,10E-02	3,83E-02
420	1012	4,74E-02	5,48E-02
419	1012	4,74E-02	5,48E-02
403	1012	4,74E-02	5,48E-02
404	1012	4,74E-02	5,48E-02
404	1013	6,40E-02	7,17E-02
405	1013	6,40E-02	7,17E-02
421	1013	6,40E-02	7,17E-02
420	1013	6,40E-02	7,17E-02
406	1014	8,07E-02	8,84E-02
421	1014	8,07E-02	8,84E-02
422	1014	8,07E-02	8,84E-02
405	1014	8,07E-02	8,84E-02
422	1015	9,74E-02	1,05E-01
423	1015	9,74E-02	1,05E-01
407	1015	9,74E-02	1,05E-01
406	1015	9,74E-02	1,05E-01
408	1016	1,14E-01	1,22E-01
407	1016	1,14E-01	1,22E-01
424	1016	1,14E-01	1,22E-01
423	1016	1,14E-01	1,22E-01
425	1017	1,31E-01	1,39E-01
409	1017	1,31E-01	1,39E-01
408	1017	1,31E-01	1,39E-01
424	1017	1,31E-01	1,39E-01
409	1018	1,48E-01	1,56E-01
410	1018	1,48E-01	1,56E-01
425	1018	1,48E-01	1,56E-01
426	1018	1,48E-01	1,56E-01
411	1019	1,65E-01	1,73E-01
426	1019	1,65E-01	1,73E-01
427	1019	1,65E-01	1,73E-01
410	1019	1,65E-01	1,73E-01
411	1020	1,82E-01	1,90E-01
427	1020	1,82E-01	1,90E-01
428	1020	1,82E-01	1,90E-01
412	1020	1,82E-01	1,90E-01
428	1021	2,00E-01	2,09E-01
429	1021	2,00E-01	2,09E-01
413	1021	2,00E-01	2,09E-01
412	1021	2,00E-01	2,09E-01
413	1022	2,20E-01	2,29E-01
429	1022	2,20E-01	2,29E-01
414	1022	2,20E-01	2,29E-01
430	1022	2,20E-01	2,29E-01
415	1023	2,46E-01	2,53E-01
414	1023	2,46E-01	2,53E-01
430	1023	2,46E-01	2,53E-01
431	1023	2,46E-01	2,53E-01
416	1024	2,75E-01	2,78E-01
415	1024	2,75E-01	2,78E-01
432	1024	2,75E-01	2,78E-01
431	1024	2,75E-01	2,78E-01
418	1025	1,46E-02	2,22E-02
433	1025	1,46E-02	2,22E-02
434	1025	1,46E-02	2,22E-02
417	1025	1,46E-02	2,22E-02
419	1026	3,02E-02	3,82E-02
434	1026	3,02E-02	3,82E-02
435	1026	3,02E-02	3,82E-02
418	1026	3,02E-02	3,82E-02
419	1027	4,59E-02	5,52E-02
420	1027	4,59E-02	5,52E-02
435	1027	4,59E-02	5,52E-02
436	1027	4,59E-02	5,52E-02
437	1028	6,22E-02	7,19E-02
420	1028	6,22E-02	7,19E-02
421	1028	6,22E-02	7,19E-02
436	1028	6,22E-02	7,19E-02
437	1029	7,85E-02	8,86E-02
422	1029	7,85E-02	8,86E-02
438	1029	7,85E-02	8,86E-02
421	1029	7,85E-02	8,86E-02
422	1030	9,49E-02	1,05E-01
438	1030	9,49E-02	1,05E-01
423	1030	9,49E-02	1,05E-01
439	1030	9,49E-02	1,05E-01
423	1031	1,11E-01	1,21E-01
440	1031	1,11E-01	1,21E-01
439	1031	1,11E-01	1,21E-01
424	1031	1,11E-01	1,21E-01
425	1032	1,28E-01	1,38E-01
440	1032	1,28E-01	1,38E-01
424	1032	1,28E-01	1,38E-01
441	1032	1,28E-01	1,38E-01
441	1033	1,44E-01	1,54E-01
426	1033	1,44E-01	1,54E-01
425	1033	1,44E-01	1,54E-01
442	1033	1,44E-01	1,54E-01
427	1034	1,60E-01	1,70E-01
426	1034	1,60E-01	1,70E-01
443	1034	1,60E-01	1,70E-01
442	1034	1,60E-01	1,70E-01
428	1035	1,77E-01	1,86E-01
443	1035	1,77E-01	1,86E-01
444	1035	1,77E-01	1,86E-01
427	1035	1,77E-01	1,86E-01
429	1036	1,94E-01	2,03E-01
444	1036	1,94E-01	2,03E-01
445	1036	1,94E-01	2,03E-01
428	1036	1,94E-01	2,03E-01
445	1037	2,13E-01	2,22E-01
446	1037	2,13E-01	2,22E-01
430	1037	2,13E-01	2,22E-01
429	1037	2,13E-01	2,22E-01
430	1038	2,38E-01	2,46E-01
446	1038	2,38E-01	2,46E-01
431	1038	2,38E-01	2,46E-01
447	1038	2,38E-01	2,46E-01
431	1039	2,76E-01	2,82E-01
448	1039	2,76E-01	2,82E-01
447	1039	2,76E-01	2,82E-01
432	1039	2,76E-01	2,82E-01
434	1040	3,47E-02	4,05E-02
449	1040	3,47E-02	4,05E-02
450	1040	3,47E-02	4,05E-02
433	1040	3,47E-02	4,05E-02
435	1041	4,85E-02	5,27E-02
450	1041	4,85E-02	5,27E-02
451	1041	4,85E-02	5,27E-02
434	1041	4,85E-02	5,27E-02
436	1042	6,36E-02	6,83E-02
451	1042	6,36E-02	6,83E-02
452	1042	6,36E-02	6,83E-02
435	1042	6,36E-02	6,83E-02
436	1043	8,00E-02	8,51E-02
452	1043	8,00E-02	8,51E-02
453	1043	8,00E-02	8,51E-02
437	1043	8,00E-02	8,51E-02
453	1044	9,71E-02	1,02E-01
454	1044	9,71E-02	1,02E-01
437	1044	9,71E-02	1,02E-01
438	1044	9,71E-02	1,02E-01
454	1045	1,15E-01	1,20E-01
455	1045	1,15E-01	1,20E-01
438	1045	1,15E-01	1,20E-01
439	1045	1,15E-01	1,20E-01
456	1046	1,32E-01	1,37E-01
440	1046	1,32E-01	1,37E-01
439	1046	1,32E-01	1,37E-01
455	1046	1,32E-01	1,37E-01
456	1047	1,50E-01	1,55E-01
441	1047	1,50E-01	1,55E-01
457	1047	1,50E-01	1,55E-01
440	1047	1,50E-01	1,55E-01
458	1048	1,67E-01	1,72E-01
441	1048	1,67E-01	1,72E-01
457	1048	1,67E-01	1,72E-01
442	1048	1,67E-01	1,72E-01
443	1049	1,84E-01	1,89E-01
458	1049	1,84E-01	1,89E-01
459	1049	1,84E-01	1,89E-01
442	1049	1,84E-01	1,89E-01
460	1050	2,02E-01	2,06E-01
443	1050	2,02E-01	2,06E-01
444	1050	2,02E-01	2,06E-01
459	1050	2,02E-01	2,06E-01
461	1051	2,18E-01	2,22E-01
444	1051	2,18E-01	2,22E-01
460	1051	2,18E-01	2,22E-01
445	1051	2,18E-01	2,22E-01
445	1052	2,36E-01	2,38E-01
446	1052	2,36E-01	2,38E-01
461	1052	2,36E-01	2,38E-01
462	1052	2,36E-01	2,38E-01
447	1053	2,53E-01	2,54E-01
462	1053	2,53E-01	2,54E-01
463	1053	2,53E-01	2,54E-01
446	1053	2,53E-01	2,54E-01
463	1054	2,75E-01	2,80E-01
464	1054	2,75E-01	2,80E-01
447	1054	2,75E-01	2,80E-01
448	1054	2,75E-01	2,80E-01
465	1055	4,81E-02	5,42E-02
466	1055	4,81E-02	5,42E-02
449	1055	4,81E-02	5,42E-02
450	1055	4,81E-02	5,42E-02
450	1056	6,11E-02	6,29E-02
466	1056	6,11E-02	6,29E-02
467	1056	6,11E-02	6,29E-02
451	1056	6,11E-02	6,29E-02
451	1057	7,74E-02	7,79E-02
468	1057	7,74E-02	7,79E-02
452	1057	7,74E-02	7,79E-02
467	1057	7,74E-02	7,79E-02
468	1058	9,52E-02	9,56E-02
452	1058	9,52E-02	9,56E-02
453	1058	9,52E-02	9,56E-02
469	1058	9,52E-02	9,56E-02
470	1059	1,14E-01	1,14E-01
453	1059	1,14E-01	1,14E-01
454	1059	1,14E-01	1,14E-01
469	1059	1,14E-01	1,14E-01
470	1060	1,33E-01	1,34E-01
454	1060	1,33E-01	1,34E-01
455	1060	1,33E-01	1,34E-01
471	1060	1,33E-01	1,34E-01
455	1061	1,53E-01	1,53E-01
456	1061	1,53E-01	1,53E-01
472	1061	1,53E-01	1,53E-01
471	1061	1,53E-01	1,53E-01
457	1062	1,73E-01	1,73E-01
473	1062	1,73E-01	1,73E-01
456	1062	1,73E-01	1,73E-01
472	1062	1,73E-01	1,73E-01
458	1063	1,92E-01	1,93E-01
474	1063	1,92E-01	1,93E-01
457	1063	1,92E-01	1,93E-01
473	1063	1,92E-01	1,93E-01
474	1064	2,12E-01	2,12E-01
475	1064	2,12E-01	2,12E-01
458	1064	2,12E-01	2,12E-01
459	1064	2,12E-01	2,12E-01
475	1065	2,31E-01	2,31E-01
476	1065	2,31E-01	2,31E-01
460	1065	2,31E-01	2,31E-01
459	1065	2,31E-01	2,31E-01
460	1066	2,50E-01	2,50E-01
476	1066	2,50E-01	2,50E-01
477	1066	2,50E-01	2,50E-01
461	1066	2,50E-01	2,50E-01
477	1067	2,67E-01	2,67E-01
462	1067	2,67E-01	2,67E-01
461	1067	2,67E-01	2,67E-01
478	1067	2,67E-01	2,67E-01
462	1068	2,82E-01	2,81E-01
478	1068	2,82E-01	2,81E-01
479	1068	2,82E-01	2,81E-01
463	1068	2,82E-01	2,81E-01
464	1069	2,91E-01	2,90E-01
479	1069	2,91E-01	2,90E-01
480	1069	2,91E-01	2,90E-01
463	1069	2,91E-01	2,90E-01
481	1070	3,81E-02	4,30E-02
466	1070	3,81E-02	4,30E-02
465	1070	3,81E-02	4,30E-02
482	1070	3,81E-02	4,30E-02
482	1071	5,12E-02	5,67E-02
483	1071	5,12E-02	5,67E-02
467	1071	5,12E-02	5,67E-02
466	1071	5,12E-02	5,67E-02
484	1072	6,97E-02	7,32E-02
483	1072	6,97E-02	7,32E-02
467	1072	6,97E-02	7,32E-02
468	1072	6,97E-02	7,32E-02
485	1073	8,93E-02	9,22E-02
484	1073	8,93E-02	9,22E-02
469	1073	8,93E-02	9,22E-02
468	1073	8,93E-02	9,22E-02
469	1074	1,09E-01	1,12E-01
485	1074	1,09E-01	1,12E-01
470	1074	1,09E-01	1,12E-01
486	1074	1,09E-01	1,12E-01
487	1075	1,30E-01	1,33E-01
470	1075	1,30E-01	1,33E-01
486	1075	1,30E-01	1,33E-01
471	1075	1,30E-01	1,33E-01
471	1076	1,50E-01	1,53E-01
487	1076	1,50E-01	1,53E-01
488	1076	1,50E-01	1,53E-01
472	1076	1,50E-01	1,53E-01
472	1077	1,71E-01	1,74E-01
488	1077	1,71E-01	1,74E-01
489	1077	1,71E-01	1,74E-01
473	1077	1,71E-01	1,74E-01
473	1078	1,92E-01	1,95E-01
490	1078	1,92E-01	1,95E-01
489	1078	1,92E-01	1,95E-01
474	1078	1,92E-01	1,95E-01
475	1079	2,13E-01	2,16E-01
490	1079	2,13E-01	2,16E-01
491	1079	2,13E-01	2,16E-01
474	1079	2,13E-01	2,16E-01
475	1080	2,34E-01	2,37E-01
476	1080	2,34E-01	2,37E-01
492	1080	2,34E-01	2,37E-01
491	1080	2,34E-01	2,37E-01
477	1081	2,56E-01	2,59E-01
492	1081	2,56E-01	2,59E-01
476	1081	2,56E-01	2,59E-01
493	1081	2,56E-01	2,59E-01
477	1082	2,76E-01	2,81E-01
494	1082	2,76E-01	2,81E-01
493	1082	2,76E-01	2,81E-01
478	1082	2,76E-01	2,81E-01
495	1083	2,95E-01	3,01E-01
478	1083	2,95E-01	3,01E-01
479	1083	2,95E-01	3,01E-01
494	1083	2,95E-01	3,01E-01
479	1084	3,10E-01	3,14E-01
495	1084	3,10E-01	3,14E-01
480	1084	3,10E-01	3,14E-01
496	1084	3,10E-01	3,14E-01
481	1085	2,80E-02	3,27E-02
498	1085	2,80E-02	3,27E-02
482	1085	2,80E-02	3,27E-02
497	1085	2,80E-02	3,27E-02
499	1086	4,39E-02	5,13E-02
483	1086	4,39E-02	5,13E-02
498	1086	4,39E-02	5,13E-02
482	1086	4,39E-02	5,13E-02
483	1087	6,38E-02	7,01E-02
484	1087	6,38E-02	7,01E-02
500	1087	6,38E-02	7,01E-02
499	1087	6,38E-02	7,01E-02
485	1088	8,46E-02	9,02E-02
501	1088	8,46E-02	9,02E-02
484	1088	8,46E-02	9,02E-02
500	1088	8,46E-02	9,02E-02
486	1089	1,05E-01	1,11E-01
501	1089	1,05E-01	1,11E-01
502	1089	1,05E-01	1,11E-01
485	1089	1,05E-01	1,11E-01
486	1090	1,26E-01	1,32E-01
503	1090	1,26E-01	1,32E-01
502	1090	1,26E-01	1,32E-01
487	1090	1,26E-01	1,32E-01
503	1091	1,48E-01	1,53E-01
504	1091	1,48E-01	1,53E-01
488	1091	1,48E-01	1,53E-01
487	1091	1,48E-01	1,53E-01
488	1092	1,69E-01	1,75E-01
505	1092	1,69E-01	1,75E-01
489	1092	1,69E-01	1,75E-01
504	1092	1,69E-01	1,75E-01
490	1093	1,90E-01	1,96E-01
505	1093	1,90E-01	1,96E-01
506	1093	1,90E-01	1,96E-01
489	1093	1,90E-01	1,96E-01
490	1094	2,12E-01	2,18E-01
506	1094	2,12E-01	2,18E-01
491	1094	2,12E-01	2,18E-01
507	1094	2,12E-01	2,18E-01
491	1095	2,34E-01	2,40E-01
492	1095	2,34E-01	2,40E-01
508	1095	2,34E-01	2,40E-01
507	1095	2,34E-01	2,40E-01
508	1096	2,56E-01	2,63E-01
492	1096	2,56E-01	2,63E-01
493	1096	2,56E-01	2,63E-01
509	1096	2,56E-01	2,63E-01
493	1097	2,80E-01	2,88E-01
509	1097	2,80E-01	2,88E-01
494	1097	2,80E-01	2,88E-01
510	1097	2,80E-01	2,88E-01
495	1098	3,04E-01	3,12E-01
511	1098	3,04E-01	3,12E-01
510	1098	3,04E-01	3,12E-01
494	1098	3,04E-01	3,12E-01
511	1099	3,24E-01	3,33E-01
512	1099	3,24E-01	3,33E-01
496	1099	3,24E-01	3,33E-01
495	1099	3,24E-01	3,33E-01
514	1100	1,94E-02	2,88E-02
498	1100	1,94E-02	2,88E-02
497	1100	1,94E-02	2,88E-02
513	1100	1,94E-02	2,88E-02
499	1101	3,94E-02	4,78E-02
514	1101	3,94E-02	4,78E-02
515	1101	3,94E-02	4,78E-02
498	1101	3,94E-02	4,78E-02
499	1102	6,01E-02	6,88E-02
515	1102	6,01E-02	6,88E-02
516	1102	6,01E-02	6,88E-02
500	1102	6,01E-02	6,88E-02
501	1103	8,11E-02	8,97E-02
516	1103	8,11E-02	8,97E-02
517	1103	8,11E-02	8,97E-02
500	1103	8,11E-02	8,97E-02
501	1104	1,02E-01	1,11E-01
517	1104	1,02E-01	1,11E-01
518	1104	1,02E-01	1,11E-01
502	1104	1,02E-01	1,11E-01
502	1105	1,23E-01	1,32E-01
519	1105	1,23E-01	1,32E-01
518	1105	1,23E-01	1,32E-01
503	1105	1,23E-01	1,32E-01
503	1106	1,45E-01	1,53E-01
519	1106	1,45E-01	1,53E-01
504	1106	1,45E-01	1,53E-01
520	1106	1,45E-01	1,53E-01
504	1107	1,66E-01	1,75E-01
521	1107	1,66E-01	1,75E-01
505	1107	1,66E-01	1,75E-01
520	1107	1,66E-01	1,75E-01
506	1108	1,87E-01	1,96E-01
505	1108	1,87E-01	1,96E-01
521	1108	1,87E-01	1,96E-01
522	1108	1,87E-01	1,96E-01
507	1109	2,09E-01	2,17E-01
522	1109	2,09E-01	2,17E-01
523	1109	2,09E-01	2,17E-01
506	1109	2,09E-01	2,17E-01
523	1110	2,30E-01	2,39E-01
524	1110	2,30E-01	2,39E-01
508	1110	2,30E-01	2,39E-01
507	1110	2,30E-01	2,39E-01
509	1111	2,52E-01	2,62E-01
524	1111	2,52E-01	2,62E-01
525	1111	2,52E-01	2,62E-01
508	1111	2,52E-01	2,62E-01
525	1112	2,76E-01	2,86E-01
526	1112	2,76E-01	2,86E-01
510	1112	2,76E-01	2,86E-01
509	1112	2,76E-01	2,86E-01
527	1113	3,05E-01	3,14E-01
511	1113	3,05E-01	3,14E-01
510	1113	3,05E-01	3,14E-01
526	1113	3,05E-01	3,14E-01
512	1114	3,36E-01	3,40E-01
511	1114	3,36E-01	3,40E-01
528	1114	3,36E-01	3,40E-01
527	1114	3,36E-01	3,40E-01
530	1115	1,88E-02	2,84E-02
529	1115	1,88E-02	2,84E-02
514	1115	1,88E-02	2,84E-02
513	1115	1,88E-02	2,84E-02
531	1116	3,85E-02	4,83E-02
515	1116	3,85E-02	4,83E-02
530	1116	3,85E-02	4,83E-02
514	1116	3,85E-02	4,83E-02
516	1117	5,86E-02	6,96E-02
532	1117	5,86E-02	6,96E-02
531	1117	5,86E-02	6,96E-02
515	1117	5,86E-02	6,96E-02
533	1118	7,93E-02	9,07E-02
532	1118	7,93E-02	9,07E-02
516	1118	7,93E-02	9,07E-02
517	1118	7,93E-02	9,07E-02
533	1119	1,00E-01	1,12E-01
518	1119	1,00E-01	1,12E-01
517	1119	1,00E-01	1,12E-01
534	1119	1,00E-01	1,12E-01
518	1120	1,21E-01	1,33E-01
519	1120	1,21E-01	1,33E-01
534	1120	1,21E-01	1,33E-01
535	1120	1,21E-01	1,33E-01
520	1121	1,42E-01	1,53E-01
519	1121	1,42E-01	1,53E-01
535	1121	1,42E-01	1,53E-01
536	1121	1,42E-01	1,53E-01
520	1122	1,63E-01	1,74E-01
521	1122	1,63E-01	1,74E-01
537	1122	1,63E-01	1,74E-01
536	1122	1,63E-01	1,74E-01
521	1123	1,83E-01	1,95E-01
538	1123	1,83E-01	1,95E-01
522	1123	1,83E-01	1,95E-01
537	1123	1,83E-01	1,95E-01
522	1124	2,04E-01	2,15E-01
523	1124	2,04E-01	2,15E-01
538	1124	2,04E-01	2,15E-01
539	1124	2,04E-01	2,15E-01
539	1125	2,24E-01	2,35E-01
540	1125	2,24E-01	2,35E-01
523	1125	2,24E-01	2,35E-01
524	1125	2,24E-01	2,35E-01
540	1126	2,45E-01	2,56E-01
525	1126	2,45E-01	2,56E-01
524	1126	2,45E-01	2,56E-01
541	1126	2,45E-01	2,56E-01
525	1127	2,67E-01	2,78E-01
526	1127	2,67E-01	2,78E-01
542	1127	2,67E-01	2,78E-01
541	1127	2,67E-01	2,78E-01
526	1128	2,95E-01	3,05E-01
542	1128	2,95E-01	3,05E-01
543	1128	2,95E-01	3,05E-01
527	1128	2,95E-01	3,05E-01
527	1129	3,35E-01	3,42E-01
528	1129	3,35E-01	3,42E-01
544	1129	3,35E-01	3,42E-01
543	1129	3,35E-01	3,42E-01
994	1451	3,41E-02	3,87E-02
1010	1451	3,41E-02	3,87E-02
1011	1451	3,41E-02	3,87E-02
995	1451	3,41E-02	3,87E-02
996	1452	5,44E-02	5,72E-02
1011	1452	5,44E-02	5,72E-02
1012	1452	5,44E-02	5,72E-02
995	1452	5,44E-02	5,72E-02
997	1453	7,58E-02	7,83E-02
1012	1453	7,58E-02	7,83E-02
1013	1453	7,58E-02	7,83E-02
996	1453	7,58E-02	7,83E-02
997	1454	9,81E-02	1,01E-01
1014	1454	9,81E-02	1,01E-01
1013	1454	9,81E-02	1,01E-01
998	1454	9,81E-02	1,01E-01
999	1455	1,21E-01	1,23E-01
1014	1455	1,21E-01	1,23E-01
1015	1455	1,21E-01	1,23E-01
998	1455	1,21E-01	1,23E-01
1015	1456	1,44E-01	1,46E-01
1016	1456	1,44E-01	1,46E-01
1000	1456	1,44E-01	1,46E-01
999	1456	1,44E-01	1,46E-01
1000	1457	1,67E-01	1,69E-01
1017	1457	1,67E-01	1,69E-01
1001	1457	1,67E-01	1,69E-01
1016	1457	1,67E-01	1,69E-01
1001	1458	1,90E-01	1,93E-01
1017	1458	1,90E-01	1,93E-01
1002	1458	1,90E-01	1,93E-01
1018	1458	1,90E-01	1,93E-01
1019	1459	2,13E-01	2,16E-01
1002	1459	2,13E-01	2,16E-01
1003	1459	2,13E-01	2,16E-01
1018	1459	2,13E-01	2,16E-01
1003	1460	2,36E-01	2,39E-01
1020	1460	2,36E-01	2,39E-01
1019	1460	2,36E-01	2,39E-01
1004	1460	2,36E-01	2,39E-01
1004	1461	2,59E-01	2,62E-01
1021	1461	2,59E-01	2,62E-01
1020	1461	2,59E-01	2,62E-01
1005	1461	2,59E-01	2,62E-01
1005	1462	2,82E-01	2,84E-01
1021	1462	2,82E-01	2,84E-01
1022	1462	2,82E-01	2,84E-01
1006	1462	2,82E-01	2,84E-01
1022	1463	3,04E-01	3,06E-01
1023	1463	3,04E-01	3,06E-01
1007	1463	3,04E-01	3,06E-01
1006	1463	3,04E-01	3,06E-01
1023	1464	3,24E-01	3,26E-01
1008	1464	3,24E-01	3,26E-01
1007	1464	3,24E-01	3,26E-01
1024	1464	3,24E-01	3,26E-01
1009	1465	3,40E-01	3,43E-01
1024	1465	3,40E-01	3,43E-01
1008	1465	3,40E-01	3,43E-01
1025	1465	3,40E-01	3,43E-01
1027	1466	4,27E-02	4,83E-02
1010	1466	4,27E-02	4,83E-02
1011	1466	4,27E-02	4,83E-02
1026	1466	4,27E-02	4,83E-02
1012	1467	6,12E-02	6,33E-02
1028	1467	6,12E-02	6,33E-02
1027	1467	6,12E-02	6,33E-02
1011	1467	6,12E-02	6,33E-02
1029	1468	8,32E-02	8,45E-02
1013	1468	8,32E-02	8,45E-02
1012	1468	8,32E-02	8,45E-02
1028	1468	8,32E-02	8,45E-02
1014	1469	1,06E-01	1,08E-01
1030	1469	1,06E-01	1,08E-01
1029	1469	1,06E-01	1,08E-01
1013	1469	1,06E-01	1,08E-01
1014	1470	1,30E-01	1,32E-01
1015	1470	1,30E-01	1,32E-01
1030	1470	1,30E-01	1,32E-01
1031	1470	1,30E-01	1,32E-01
1031	1471	1,55E-01	1,56E-01
1015	1471	1,55E-01	1,56E-01
1016	1471	1,55E-01	1,56E-01
1032	1471	1,55E-01	1,56E-01
1017	1472	1,79E-01	1,81E-01
1032	1472	1,79E-01	1,81E-01
1016	1472	1,79E-01	1,81E-01
1033	1472	1,79E-01	1,81E-01
1034	1473	2,04E-01	2,05E-01
1018	1473	2,04E-01	2,05E-01
1017	1473	2,04E-01	2,05E-01
1033	1473	2,04E-01	2,05E-01
1035	1474	2,28E-01	2,30E-01
1018	1474	2,28E-01	2,30E-01
1034	1474	2,28E-01	2,30E-01
1019	1474	2,28E-01	2,30E-01
1035	1475	2,53E-01	2,54E-01
1020	1475	2,53E-01	2,54E-01
1036	1475	2,53E-01	2,54E-01
1019	1475	2,53E-01	2,54E-01
1036	1476	2,77E-01	2,79E-01
1020	1476	2,77E-01	2,79E-01
1021	1476	2,77E-01	2,79E-01
1037	1476	2,77E-01	2,79E-01
1038	1477	3,02E-01	3,03E-01
1022	1477	3,02E-01	3,03E-01
1021	1477	3,02E-01	3,03E-01
1037	1477	3,02E-01	3,03E-01
1039	1478	3,26E-01	3,27E-01
1038	1478	3,26E-01	3,27E-01
1023	1478	3,26E-01	3,27E-01
1022	1478	3,26E-01	3,27E-01
1023	1479	3,48E-01	3,50E-01
1024	1479	3,48E-01	3,50E-01
1040	1479	3,48E-01	3,50E-01
1039	1479	3,48E-01	3,50E-01
1024	1480	3,63E-01	3,66E-01
1025	1480	3,63E-01	3,66E-01
1041	1480	3,63E-01	3,66E-01
1040	1480	3,63E-01	3,66E-01
1043	1481	3,01E-02	3,86E-02
1042	1481	3,01E-02	3,86E-02
1027	1481	3,01E-02	3,86E-02
1026	1481	3,01E-02	3,86E-02
1044	1482	5,07E-02	5,83E-02
1043	1482	5,07E-02	5,83E-02
1027	1482	5,07E-02	5,83E-02
1028	1482	5,07E-02	5,83E-02
1045	1483	7,49E-02	8,15E-02
1029	1483	7,49E-02	8,15E-02
1028	1483	7,49E-02	8,15E-02
1044	1483	7,49E-02	8,15E-02
1030	1484	9,96E-02	1,06E-01
1029	1484	9,96E-02	1,06E-01
1046	1484	9,96E-02	1,06E-01
1045	1484	9,96E-02	1,06E-01
1031	1485	1,24E-01	1,31E-01
1047	1485	1,24E-01	1,31E-01
1030	1485	1,24E-01	1,31E-01
1046	1485	1,24E-01	1,31E-01
1032	1486	1,49E-01	1,56E-01
1031	1486	1,49E-01	1,56E-01
1047	1486	1,49E-01	1,56E-01
1048	1486	1,49E-01	1,56E-01
1049	1487	1,74E-01	1,81E-01
1048	1487	1,74E-01	1,81E-01
1033	1487	1,74E-01	1,81E-01
1032	1487	1,74E-01	1,81E-01
1033	1488	1,99E-01	2,06E-01
1049	1488	1,99E-01	2,06E-01
1050	1488	1,99E-01	2,06E-01
1034	1488	1,99E-01	2,06E-01
1051	1489	2,25E-01	2,32E-01
1035	1489	2,25E-01	2,32E-01
1050	1489	2,25E-01	2,32E-01
1034	1489	2,25E-01	2,32E-01
1052	1490	2,50E-01	2,57E-01
1035	1490	2,50E-01	2,57E-01
1036	1490	2,50E-01	2,57E-01
1051	1490	2,50E-01	2,57E-01
1036	1491	2,75E-01	2,82E-01
1053	1491	2,75E-01	2,82E-01
1052	1491	2,75E-01	2,82E-01
1037	1491	2,75E-01	2,82E-01
1038	1492	3,01E-01	3,08E-01
1054	1492	3,01E-01	3,08E-01
1053	1492	3,01E-01	3,08E-01
1037	1492	3,01E-01	3,08E-01
1038	1493	3,27E-01	3,35E-01
1054	1493	3,27E-01	3,35E-01
1039	1493	3,27E-01	3,35E-01
1055	1493	3,27E-01	3,35E-01
1040	1494	3,57E-01	3,65E-01
1056	1494	3,57E-01	3,65E-01
1055	1494	3,57E-01	3,65E-01
1039	1494	3,57E-01	3,65E-01
1041	1495	3,84E-01	3,89E-01
1040	1495	3,84E-01	3,89E-01
1056	1495	3,84E-01	3,89E-01
1057	1495	3,84E-01	3,89E-01
1043	1496	2,25E-02	3,21E-02
1058	1496	2,25E-02	3,21E-02
1059	1496	2,25E-02	3,21E-02
1042	1496	2,25E-02	3,21E-02
1059	1497	4,53E-02	5,76E-02
1043	1497	4,53E-02	5,76E-02
1044	1497	4,53E-02	5,76E-02
1060	1497	4,53E-02	5,76E-02
1060	1498	6,99E-02	8,25E-02
1061	1498	6,99E-02	8,25E-02
1045	1498	6,99E-02	8,25E-02
1044	1498	6,99E-02	8,25E-02
1062	1499	9,50E-02	1,08E-01
1046	1499	9,50E-02	1,08E-01
1045	1499	9,50E-02	1,08E-01
1061	1499	9,50E-02	1,08E-01
1047	1500	1,20E-01	1,33E-01
1062	1500	1,20E-01	1,33E-01
1063	1500	1,20E-01	1,33E-01
1046	1500	1,20E-01	1,33E-01
1063	1501	1,45E-01	1,58E-01
1064	1501	1,45E-01	1,58E-01
1048	1501	1,45E-01	1,58E-01
1047	1501	1,45E-01	1,58E-01
1065	1502	1,70E-01	1,83E-01
1064	1502	1,70E-01	1,83E-01
1049	1502	1,70E-01	1,83E-01
1048	1502	1,70E-01	1,83E-01
1049	1503	1,95E-01	2,08E-01
1050	1503	1,95E-01	2,08E-01
1065	1503	1,95E-01	2,08E-01
1066	1503	1,95E-01	2,08E-01
1066	1504	2,20E-01	2,33E-01
1067	1504	2,20E-01	2,33E-01
1050	1504	2,20E-01	2,33E-01
1051	1504	2,20E-01	2,33E-01
1068	1505	2,45E-01	2,58E-01
1067	1505	2,45E-01	2,58E-01
1051	1505	2,45E-01	2,58E-01
1052	1505	2,45E-01	2,58E-01
1068	1506	2,70E-01	2,83E-01
1069	1506	2,70E-01	2,83E-01
1053	1506	2,70E-01	2,83E-01
1052	1506	2,70E-01	2,83E-01
1053	1507	2,95E-01	3,08E-01
1069	1507	2,95E-01	3,08E-01
1054	1507	2,95E-01	3,08E-01
1070	1507	2,95E-01	3,08E-01
1071	1508	3,20E-01	3,33E-01
1055	1508	3,20E-01	3,33E-01
1054	1508	3,20E-01	3,33E-01
1070	1508	3,20E-01	3,33E-01
1056	1509	3,48E-01	3,61E-01
1055	1509	3,48E-01	3,61E-01
1071	1509	3,48E-01	3,61E-01
1072	1509	3,48E-01	3,61E-01
1073	1510	3,86E-01	3,96E-01
1072	1510	3,86E-01	3,96E-01
1056	1510	3,86E-01	3,96E-01
1057	1510	3,86E-01	3,96E-01
1753	2102	4,81E-02	5,23E-02
1770	2102	4,81E-02	5,23E-02
1754	2102	4,81E-02	5,23E-02
1769	2102	4,81E-02	5,23E-02
1754	2103	6,10E-02	6,76E-02
1755	2103	6,10E-02	6,76E-02
1770	2103	6,10E-02	6,76E-02
1771	2103	6,10E-02	6,76E-02
1755	2104	7,99E-02	8,70E-02
1756	2104	7,99E-02	8,70E-02
1772	2104	7,99E-02	8,70E-02
1771	2104	7,99E-02	8,70E-02
1757	2105	1,01E-01	1,08E-01
1772	2105	1,01E-01	1,08E-01
1756	2105	1,01E-01	1,08E-01
1773	2105	1,01E-01	1,08E-01
1773	2106	1,24E-01	1,31E-01
1758	2106	1,24E-01	1,31E-01
1757	2106	1,24E-01	1,31E-01
1774	2106	1,24E-01	1,31E-01
1774	2107	1,47E-01	1,54E-01
1758	2107	1,47E-01	1,54E-01
1759	2107	1,47E-01	1,54E-01
1775	2107	1,47E-01	1,54E-01
1759	2108	1,70E-01	1,77E-01
1760	2108	1,70E-01	1,77E-01
1776	2108	1,70E-01	1,77E-01
1775	2108	1,70E-01	1,77E-01
1760	2109	1,94E-01	2,00E-01
1761	2109	1,94E-01	2,00E-01
1776	2109	1,94E-01	2,00E-01
1777	2109	1,94E-01	2,00E-01
1761	2110	2,17E-01	2,24E-01
1777	2110	2,17E-01	2,24E-01
1778	2110	2,17E-01	2,24E-01
1762	2110	2,17E-01	2,24E-01
1762	2111	2,41E-01	2,48E-01
1779	2111	2,41E-01	2,48E-01
1778	2111	2,41E-01	2,48E-01
1763	2111	2,41E-01	2,48E-01
1763	2112	2,65E-01	2,71E-01
1764	2112	2,65E-01	2,71E-01
1780	2112	2,65E-01	2,71E-01
1779	2112	2,65E-01	2,71E-01
1765	2113	2,88E-01	2,96E-01
1781	2113	2,88E-01	2,96E-01
1780	2113	2,88E-01	2,96E-01
1764	2113	2,88E-01	2,96E-01
1766	2114	3,12E-01	3,19E-01
1765	2114	3,12E-01	3,19E-01
1781	2114	3,12E-01	3,19E-01
1782	2114	3,12E-01	3,19E-01
1767	2115	3,37E-01	3,43E-01
1783	2115	3,37E-01	3,43E-01
1782	2115	3,37E-01	3,43E-01
1766	2115	3,37E-01	3,43E-01
1768	2116	3,58E-01	3,66E-01
1783	2116	3,58E-01	3,66E-01
1784	2116	3,58E-01	3,66E-01
1767	2116	3,58E-01	3,66E-01
1769	2117	4,48E-02	4,57E-02
1786	2117	4,48E-02	4,57E-02
1770	2117	4,48E-02	4,57E-02
1785	2117	4,48E-02	4,57E-02
1770	2118	5,84E-02	6,18E-02
1786	2118	5,84E-02	6,18E-02
1787	2118	5,84E-02	6,18E-02
1771	2118	5,84E-02	6,18E-02
1788	2119	7,56E-02	7,93E-02
1771	2119	7,56E-02	7,93E-02
1772	2119	7,56E-02	7,93E-02
1787	2119	7,56E-02	7,93E-02
1772	2120	9,55E-02	9,87E-02
1773	2120	9,55E-02	9,87E-02
1789	2120	9,55E-02	9,87E-02
1788	2120	9,55E-02	9,87E-02
1773	2121	1,16E-01	1,19E-01
1789	2121	1,16E-01	1,19E-01
1774	2121	1,16E-01	1,19E-01
1790	2121	1,16E-01	1,19E-01
1790	2122	1,37E-01	1,40E-01
1774	2122	1,37E-01	1,40E-01
1775	2122	1,37E-01	1,40E-01
1791	2122	1,37E-01	1,40E-01
1776	2123	1,59E-01	1,62E-01
1791	2123	1,59E-01	1,62E-01
1775	2123	1,59E-01	1,62E-01
1792	2123	1,59E-01	1,62E-01
1793	2124	1,80E-01	1,83E-01
1776	2124	1,80E-01	1,83E-01
1777	2124	1,80E-01	1,83E-01
1792	2124	1,80E-01	1,83E-01
1777	2125	2,02E-01	2,05E-01
1794	2125	2,02E-01	2,05E-01
1778	2125	2,02E-01	2,05E-01
1793	2125	2,02E-01	2,05E-01
1794	2126	2,24E-01	2,27E-01
1779	2126	2,24E-01	2,27E-01
1778	2126	2,24E-01	2,27E-01
1795	2126	2,24E-01	2,27E-01
1780	2127	2,46E-01	2,49E-01
1795	2127	2,46E-01	2,49E-01
1779	2127	2,46E-01	2,49E-01
1796	2127	2,46E-01	2,49E-01
1796	2128	2,68E-01	2,71E-01
1780	2128	2,68E-01	2,71E-01
1781	2128	2,68E-01	2,71E-01
1797	2128	2,68E-01	2,71E-01
1798	2129	2,89E-01	2,91E-01
1797	2129	2,89E-01	2,91E-01
1782	2129	2,89E-01	2,91E-01
1781	2129	2,89E-01	2,91E-01
1799	2130	3,13E-01	3,15E-01
1782	2130	3,13E-01	3,15E-01
1783	2130	3,13E-01	3,15E-01
1798	2130	3,13E-01	3,15E-01
1800	2131	3,38E-01	3,43E-01
1799	2131	3,38E-01	3,43E-01
1783	2131	3,38E-01	3,43E-01
1784	2131	3,38E-01	3,43E-01
1802	2132	4,05E-02	4,79E-02
1786	2132	4,05E-02	4,79E-02
1801	2132	4,05E-02	4,79E-02
1785	2132	4,05E-02	4,79E-02
1786	2133	4,85E-02	6,22E-02
1787	2133	4,85E-02	6,22E-02
1803	2133	4,85E-02	6,22E-02
1802	2133	4,85E-02	6,22E-02
1787	2134	6,28E-02	7,88E-02
1804	2134	6,28E-02	7,88E-02
1788	2134	6,28E-02	7,88E-02
1803	2134	6,28E-02	7,88E-02
1805	2135	8,04E-02	9,73E-02
1788	2135	8,04E-02	9,73E-02
1789	2135	8,04E-02	9,73E-02
1804	2135	8,04E-02	9,73E-02
1789	2136	9,91E-02	1,16E-01
1806	2136	9,91E-02	1,16E-01
1790	2136	9,91E-02	1,16E-01
1805	2136	9,91E-02	1,16E-01
1806	2137	1,18E-01	1,36E-01
1807	2137	1,18E-01	1,36E-01
1791	2137	1,18E-01	1,36E-01
1790	2137	1,18E-01	1,36E-01
1808	2138	1,38E-01	1,56E-01
1807	2138	1,38E-01	1,56E-01
1792	2138	1,38E-01	1,56E-01
1791	2138	1,38E-01	1,56E-01
1809	2139	1,58E-01	1,75E-01
1792	2139	1,58E-01	1,75E-01
1808	2139	1,58E-01	1,75E-01
1793	2139	1,58E-01	1,75E-01
1809	2140	1,78E-01	1,95E-01
1793	2140	1,78E-01	1,95E-01
1794	2140	1,78E-01	1,95E-01
1810	2140	1,78E-01	1,95E-01
1811	2141	1,98E-01	2,15E-01
1810	2141	1,98E-01	2,15E-01
1794	2141	1,98E-01	2,15E-01
1795	2141	1,98E-01	2,15E-01
1796	2142	2,18E-01	2,35E-01
1812	2142	2,18E-01	2,35E-01
1811	2142	2,18E-01	2,35E-01
1795	2142	2,18E-01	2,35E-01
1812	2143	2,38E-01	2,56E-01
1813	2143	2,38E-01	2,56E-01
1797	2143	2,38E-01	2,56E-01
1796	2143	2,38E-01	2,56E-01
1798	2144	2,58E-01	2,76E-01
1814	2144	2,58E-01	2,76E-01
1813	2144	2,58E-01	2,76E-01
1797	2144	2,58E-01	2,76E-01
1814	2145	2,80E-01	2,97E-01
1798	2145	2,80E-01	2,97E-01
1799	2145	2,80E-01	2,97E-01
1815	2145	2,80E-01	2,97E-01
1816	2146	3,15E-01	3,30E-01
1800	2146	3,15E-01	3,30E-01
1799	2146	3,15E-01	3,30E-01
1815	2146	3,15E-01	3,30E-01
1817	2147	5,54E-02	5,50E-02
1818	2147	5,54E-02	5,50E-02
1801	2147	5,54E-02	5,50E-02
1802	2147	5,54E-02	5,50E-02
1818	2148	6,63E-02	6,29E-02
1802	2148	6,63E-02	6,29E-02
1819	2148	6,63E-02	6,29E-02
1803	2148	6,63E-02	6,29E-02
1804	2149	8,11E-02	7,62E-02
1820	2149	8,11E-02	7,62E-02
1803	2149	8,11E-02	7,62E-02
1819	2149	8,11E-02	7,62E-02
1821	2150	9,79E-02	9,26E-02
1820	2150	9,79E-02	9,26E-02
1804	2150	9,79E-02	9,26E-02
1805	2150	9,79E-02	9,26E-02
1805	2151	1,16E-01	1,10E-01
1822	2151	1,16E-01	1,10E-01
1821	2151	1,16E-01	1,10E-01
1806	2151	1,16E-01	1,10E-01
1806	2152	1,35E-01	1,29E-01
1823	2152	1,35E-01	1,29E-01
1822	2152	1,35E-01	1,29E-01
1807	2152	1,35E-01	1,29E-01
1824	2153	1,54E-01	1,48E-01
1807	2153	1,54E-01	1,48E-01
1823	2153	1,54E-01	1,48E-01
1808	2153	1,54E-01	1,48E-01
1825	2154	1,73E-01	1,67E-01
1824	2154	1,73E-01	1,67E-01
1808	2154	1,73E-01	1,67E-01
1809	2154	1,73E-01	1,67E-01
1826	2155	1,93E-01	1,86E-01
1809	2155	1,93E-01	1,86E-01
1810	2155	1,93E-01	1,86E-01
1825	2155	1,93E-01	1,86E-01
1810	2156	2,12E-01	2,06E-01
1811	2156	2,12E-01	2,06E-01
1826	2156	2,12E-01	2,06E-01
1827	2156	2,12E-01	2,06E-01
1811	2157	2,32E-01	2,25E-01
1827	2157	2,32E-01	2,25E-01
1828	2157	2,32E-01	2,25E-01
1812	2157	2,32E-01	2,25E-01
1828	2158	2,52E-01	2,45E-01
1812	2158	2,52E-01	2,45E-01
1813	2158	2,52E-01	2,45E-01
1829	2158	2,52E-01	2,45E-01
1814	2159	2,71E-01	2,65E-01
1829	2159	2,71E-01	2,65E-01
1813	2159	2,71E-01	2,65E-01
1830	2159	2,71E-01	2,65E-01
1814	2160	2,91E-01	2,85E-01
1815	2160	2,91E-01	2,85E-01
1830	2160	2,91E-01	2,85E-01
1831	2160	2,91E-01	2,85E-01
1816	2161	2,97E-01	2,88E-01
1831	2161	2,97E-01	2,88E-01
1815	2161	2,97E-01	2,88E-01
1832	2161	2,97E-01	2,88E-01
2273	2468	1,44E-14	1,50E-14
2289	2468	1,44E-14	1,50E-14
2274	2468	1,44E-14	1,50E-14
2290	2468	1,44E-14	1,50E-14
2275	2469	9,87E-15	9,99E-15
2290	2469	9,87E-15	9,99E-15
2291	2469	9,87E-15	9,99E-15
2274	2469	9,87E-15	9,99E-15
2291	2470	4,62E-15	3,84E-15
2292	2470	4,62E-15	3,84E-15
2276	2470	4,62E-15	3,84E-15
2275	2470	4,62E-15	3,84E-15
2292	2471	7,62E-15	6,45E-15
2293	2471	7,62E-15	6,45E-15
2277	2471	7,62E-15	6,45E-15
2276	2471	7,62E-15	6,45E-15
2293	2472	8,49E-15	8,90E-15
2277	2472	8,49E-15	8,90E-15
2278	2472	8,49E-15	8,90E-15
2294	2472	8,49E-15	8,90E-15
2294	2473	4,94E-15	6,91E-15
2279	2473	4,94E-15	6,91E-15
2295	2473	4,94E-15	6,91E-15
2278	2473	4,94E-15	6,91E-15
2279	2474	4,94E-15	5,87E-15
2296	2474	4,94E-15	5,87E-15
2280	2474	4,94E-15	5,87E-15
2295	2474	4,94E-15	5,87E-15
2296	2475	8,90E-15	1,08E-14
2281	2475	8,90E-15	1,08E-14
2297	2475	8,90E-15	1,08E-14
2280	2475	8,90E-15	1,08E-14
2297	2476	1,12E-14	1,25E-14
2282	2476	1,12E-14	1,25E-14
2298	2476	1,12E-14	1,25E-14
2281	2476	1,12E-14	1,25E-14
2282	2477	1,14E-14	1,25E-14
2299	2477	1,14E-14	1,25E-14
2298	2477	1,14E-14	1,25E-14
2283	2477	1,14E-14	1,25E-14
2284	2478	1,22E-14	1,72E-14
2283	2478	1,22E-14	1,72E-14
2300	2478	1,22E-14	1,72E-14
2299	2478	1,22E-14	1,72E-14
2301	2479	1,18E-14	1,29E-14
2284	2479	1,18E-14	1,29E-14
2285	2479	1,18E-14	1,29E-14
2300	2479	1,18E-14	1,29E-14
2302	2480	9,63E-15	7,94E-15
2285	2480	9,63E-15	7,94E-15
2301	2480	9,63E-15	7,94E-15
2286	2480	9,63E-15	7,94E-15
2303	2481	7,71E-15	1,01E-14
2286	2481	7,71E-15	1,01E-14
2287	2481	7,71E-15	1,01E-14
2302	2481	7,71E-15	1,01E-14
2287	2482	8,58E-15	1,13E-14
2288	2482	8,58E-15	1,13E-14
2303	2482	8,58E-15	1,13E-14
2304	2482	8,58E-15	1,13E-14
2289	2483	1,54E-14	1,54E-14
2305	2483	1,54E-14	1,54E-14
2290	2483	1,54E-14	1,54E-14
2306	2483	1,54E-14	1,54E-14
2307	2484	9,25E-15	9,49E-15
2306	2484	9,25E-15	9,49E-15
2290	2484	9,25E-15	9,49E-15
2291	2484	9,25E-15	9,49E-15
2307	2485	7,65E-15	7,47E-15
2292	2485	7,65E-15	7,47E-15
2308	2485	7,65E-15	7,47E-15
2291	2485	7,65E-15	7,47E-15
2309	2486	1,13E-14	1,04E-14
2293	2486	1,13E-14	1,04E-14
2292	2486	1,13E-14	1,04E-14
2308	2486	1,13E-14	1,04E-14
2309	2487	9,75E-15	9,79E-15
2310	2487	9,75E-15	9,79E-15
2293	2487	9,75E-15	9,79E-15
2294	2487	9,75E-15	9,79E-15
2294	2488	5,78E-15	7,58E-15
2310	2488	5,78E-15	7,58E-15
2311	2488	5,78E-15	7,58E-15
2295	2488	5,78E-15	7,58E-15
2295	2489	5,56E-15	6,74E-15
2312	2489	5,56E-15	6,74E-15
2296	2489	5,56E-15	6,74E-15
2311	2489	5,56E-15	6,74E-15
2296	2490	8,38E-15	8,37E-15
2312	2490	8,38E-15	8,37E-15
2313	2490	8,38E-15	8,37E-15
2297	2490	8,38E-15	8,37E-15
2314	2491	8,89E-15	7,89E-15
2313	2491	8,89E-15	7,89E-15
2298	2491	8,89E-15	7,89E-15
2297	2491	8,89E-15	7,89E-15
2298	2492	8,27E-15	8,30E-15
2314	2492	8,27E-15	8,30E-15
2315	2492	8,27E-15	8,30E-15
2299	2492	8,27E-15	8,30E-15
2300	2493	9,40E-15	1,20E-14
2316	2493	9,40E-15	1,20E-14
2315	2493	9,40E-15	1,20E-14
2299	2493	9,40E-15	1,20E-14
2317	2494	1,08E-14	9,51E-15
2300	2494	1,08E-14	9,51E-15
2301	2494	1,08E-14	9,51E-15
2316	2494	1,08E-14	9,51E-15
2318	2495	1,25E-14	8,89E-15
2301	2495	1,25E-14	8,89E-15
2302	2495	1,25E-14	8,89E-15
2317	2495	1,25E-14	8,89E-15
2302	2496	1,05E-14	1,12E-14
2319	2496	1,05E-14	1,12E-14
2318	2496	1,05E-14	1,12E-14
2303	2496	1,05E-14	1,12E-14
2303	2497	1,00E-14	1,12E-14
2304	2497	1,00E-14	1,12E-14
2320	2497	1,00E-14	1,12E-14
2319	2497	1,00E-14	1,12E-14
2306	2498	1,88E-14	1,87E-14
2321	2498	1,88E-14	1,87E-14
2305	2498	1,88E-14	1,87E-14
2322	2498	1,88E-14	1,87E-14
2307	2499	1,19E-14	1,27E-14
2306	2499	1,19E-14	1,27E-14
2323	2499	1,19E-14	1,27E-14
2322	2499	1,19E-14	1,27E-14
2323	2500	1,34E-14	1,46E-14
2307	2500	1,34E-14	1,46E-14
2308	2500	1,34E-14	1,46E-14
2324	2500	1,34E-14	1,46E-14
2309	2501	1,67E-14	1,62E-14
2325	2501	1,67E-14	1,62E-14
2324	2501	1,67E-14	1,62E-14
2308	2501	1,67E-14	1,62E-14
2325	2502	1,43E-14	1,19E-14
2309	2502	1,43E-14	1,19E-14
2326	2502	1,43E-14	1,19E-14
2310	2502	1,43E-14	1,19E-14
2310	2503	9,94E-15	9,13E-15
2326	2503	9,94E-15	9,13E-15
2327	2503	9,94E-15	9,13E-15
2311	2503	9,94E-15	9,13E-15
2327	2504	9,49E-15	9,50E-15
2311	2504	9,49E-15	9,50E-15
2312	2504	9,49E-15	9,50E-15
2328	2504	9,49E-15	9,50E-15
2329	2505	8,31E-15	7,65E-15
2313	2505	8,31E-15	7,65E-15
2312	2505	8,31E-15	7,65E-15
2328	2505	8,31E-15	7,65E-15
2313	2506	6,19E-15	4,09E-15
2329	2506	6,19E-15	4,09E-15
2314	2506	6,19E-15	4,09E-15
2330	2506	6,19E-15	4,09E-15
2315	2507	8,48E-15	6,88E-15
2314	2507	8,48E-15	6,88E-15
2331	2507	8,48E-15	6,88E-15
2330	2507	8,48E-15	6,88E-15
2316	2508	9,31E-15	9,89E-15
2332	2508	9,31E-15	9,89E-15
2315	2508	9,31E-15	9,89E-15
2331	2508	9,31E-15	9,89E-15
2332	2509	8,31E-15	7,28E-15
2317	2509	8,31E-15	7,28E-15
2333	2509	8,31E-15	7,28E-15
2316	2509	8,31E-15	7,28E-15
2318	2510	1,05E-14	1,00E-14
2333	2510	1,05E-14	1,00E-14
2317	2510	1,05E-14	1,00E-14
2334	2510	1,05E-14	1,00E-14
2335	2511	8,49E-15	1,11E-14
2334	2511	8,49E-15	1,11E-14
2319	2511	8,49E-15	1,11E-14
2318	2511	8,49E-15	1,11E-14
2319	2512	8,07E-15	9,41E-15
2336	2512	8,07E-15	9,41E-15
2335	2512	8,07E-15	9,41E-15
2320	2512	8,07E-15	9,41E-15
2338	2513	1,87E-14	1,98E-14
2322	2513	1,87E-14	1,98E-14
2321	2513	1,87E-14	1,98E-14
2337	2513	1,87E-14	1,98E-14
2322	2514	1,33E-14	1,43E-14
2339	2514	1,33E-14	1,43E-14
2338	2514	1,33E-14	1,43E-14
2323	2514	1,33E-14	1,43E-14
2324	2515	1,17E-14	1,32E-14
2339	2515	1,17E-14	1,32E-14
2340	2515	1,17E-14	1,32E-14
2323	2515	1,17E-14	1,32E-14
2341	2516	1,21E-14	1,27E-14
2324	2516	1,21E-14	1,27E-14
2340	2516	1,21E-14	1,27E-14
2325	2516	1,21E-14	1,27E-14
2341	2517	1,17E-14	9,11E-15
2326	2517	1,17E-14	9,11E-15
2342	2517	1,17E-14	9,11E-15
2325	2517	1,17E-14	9,11E-15
2343	2518	1,01E-14	8,25E-15
2342	2518	1,01E-14	8,25E-15
2327	2518	1,01E-14	8,25E-15
2326	2518	1,01E-14	8,25E-15
2327	2519	9,70E-15	1,03E-14
2343	2519	9,70E-15	1,03E-14
2328	2519	9,70E-15	1,03E-14
2344	2519	9,70E-15	1,03E-14
2328	2520	8,60E-15	9,54E-15
2344	2520	8,60E-15	9,54E-15
2345	2520	8,60E-15	9,54E-15
2329	2520	8,60E-15	9,54E-15
2345	2521	7,01E-15	7,46E-15
2329	2521	7,01E-15	7,46E-15
2330	2521	7,01E-15	7,46E-15
2346	2521	7,01E-15	7,46E-15
2347	2522	7,26E-15	8,54E-15
2330	2522	7,26E-15	8,54E-15
2346	2522	7,26E-15	8,54E-15
2331	2522	7,26E-15	8,54E-15
2347	2523	8,64E-15	1,03E-14
2332	2523	8,64E-15	1,03E-14
2348	2523	8,64E-15	1,03E-14
2331	2523	8,64E-15	1,03E-14
2348	2524	1,04E-14	1,04E-14
2332	2524	1,04E-14	1,04E-14
2333	2524	1,04E-14	1,04E-14
2349	2524	1,04E-14	1,04E-14
2333	2525	9,89E-15	9,61E-15
2349	2525	9,89E-15	9,61E-15
2334	2525	9,89E-15	9,61E-15
2350	2525	9,89E-15	9,61E-15
2334	2526	7,14E-15	9,86E-15
2351	2526	7,14E-15	9,86E-15
2350	2526	7,14E-15	9,86E-15
2335	2526	7,14E-15	9,86E-15
2336	2527	8,83E-15	1,17E-14
2351	2527	8,83E-15	1,17E-14
2352	2527	8,83E-15	1,17E-14
2335	2527	8,83E-15	1,17E-14
2353	2528	1,25E-14	1,36E-14
2337	2528	1,25E-14	1,36E-14
2338	2528	1,25E-14	1,36E-14
2354	2528	1,25E-14	1,36E-14
2339	2529	7,07E-15	7,29E-15
2355	2529	7,07E-15	7,29E-15
2338	2529	7,07E-15	7,29E-15
2354	2529	7,07E-15	7,29E-15
2340	2530	1,01E-14	9,42E-15
2339	2530	1,01E-14	9,42E-15
2356	2530	1,01E-14	9,42E-15
2355	2530	1,01E-14	9,42E-15
2340	2531	1,18E-14	1,12E-14
2357	2531	1,18E-14	1,12E-14
2341	2531	1,18E-14	1,12E-14
2356	2531	1,18E-14	1,12E-14
2358	2532	8,43E-15	7,72E-15
2357	2532	8,43E-15	7,72E-15
2342	2532	8,43E-15	7,72E-15
2341	2532	8,43E-15	7,72E-15
2342	2533	6,38E-15	6,96E-15
2358	2533	6,38E-15	6,96E-15
2343	2533	6,38E-15	6,96E-15
2359	2533	6,38E-15	6,96E-15
2343	2534	8,92E-15	1,16E-14
2360	2534	8,92E-15	1,16E-14
2344	2534	8,92E-15	1,16E-14
2359	2534	8,92E-15	1,16E-14
2360	2535	9,02E-15	1,18E-14
2345	2535	9,02E-15	1,18E-14
2361	2535	9,02E-15	1,18E-14
2344	2535	9,02E-15	1,18E-14
2346	2536	9,28E-15	1,06E-14
2362	2536	9,28E-15	1,06E-14
2345	2536	9,28E-15	1,06E-14
2361	2536	9,28E-15	1,06E-14
2346	2537	9,03E-15	9,84E-15
2363	2537	9,03E-15	9,84E-15
2362	2537	9,03E-15	9,84E-15
2347	2537	9,03E-15	9,84E-15
2363	2538	8,53E-15	9,49E-15
2348	2538	8,53E-15	9,49E-15
2347	2538	8,53E-15	9,49E-15
2364	2538	8,53E-15	9,49E-15
2364	2539	1,48E-14	1,42E-14
2348	2539	1,48E-14	1,42E-14
2365	2539	1,48E-14	1,42E-14
2349	2539	1,48E-14	1,42E-14
2366	2540	1,27E-14	1,19E-14
2349	2540	1,27E-14	1,19E-14
2365	2540	1,27E-14	1,19E-14
2350	2540	1,27E-14	1,19E-14
2367	2541	9,27E-15	1,13E-14
2350	2541	9,27E-15	1,13E-14
2366	2541	9,27E-15	1,13E-14
2351	2541	9,27E-15	1,13E-14
2367	2542	1,20E-14	1,43E-14
2368	2542	1,20E-14	1,43E-14
2352	2542	1,20E-14	1,43E-14
2351	2542	1,20E-14	1,43E-14
2545	2693	1,37E-14	1,10E-14
2562	2693	1,37E-14	1,10E-14
2546	2693	1,37E-14	1,10E-14
2561	2693	1,37E-14	1,10E-14
2546	2694	1,77E-14	1,56E-14
2562	2694	1,77E-14	1,56E-14
2547	2694	1,77E-14	1,56E-14
2563	2694	1,77E-14	1,56E-14
2548	2695	1,42E-14	1,34E-14
2547	2695	1,42E-14	1,34E-14
2564	2695	1,42E-14	1,34E-14
2563	2695	1,42E-14	1,34E-14
2565	2696	8,58E-15	7,12E-15
2549	2696	8,58E-15	7,12E-15
2564	2696	8,58E-15	7,12E-15
2548	2696	8,58E-15	7,12E-15
2566	2697	9,42E-15	1,03E-14
2565	2697	9,42E-15	1,03E-14
2550	2697	9,42E-15	1,03E-14
2549	2697	9,42E-15	1,03E-14
2566	2698	8,36E-15	1,20E-14
2551	2698	8,36E-15	1,20E-14
2550	2698	8,36E-15	1,20E-14
2567	2698	8,36E-15	1,20E-14
2567	2699	5,29E-15	8,18E-15
2568	2699	5,29E-15	8,18E-15
2551	2699	5,29E-15	8,18E-15
2552	2699	5,29E-15	8,18E-15
2568	2700	2,96E-15	4,48E-15
2569	2700	2,96E-15	4,48E-15
2552	2700	2,96E-15	4,48E-15
2553	2700	2,96E-15	4,48E-15
2569	2701	3,94E-15	4,91E-15
2570	2701	3,94E-15	4,91E-15
2553	2701	3,94E-15	4,91E-15
2554	2701	3,94E-15	4,91E-15
2571	2702	6,47E-15	7,82E-15
2554	2702	6,47E-15	7,82E-15
2555	2702	6,47E-15	7,82E-15
2570	2702	6,47E-15	7,82E-15
2571	2703	9,39E-15	1,01E-14
2572	2703	9,39E-15	1,01E-14
2556	2703	9,39E-15	1,01E-14
2555	2703	9,39E-15	1,01E-14
2557	2704	8,05E-15	7,55E-15
2573	2704	8,05E-15	7,55E-15
2572	2704	8,05E-15	7,55E-15
2556	2704	8,05E-15	7,55E-15
2573	2705	1,08E-14	1,06E-14
2574	2705	1,08E-14	1,06E-14
2558	2705	1,08E-14	1,06E-14
2557	2705	1,08E-14	1,06E-14
2575	2706	1,36E-14	1,41E-14
2574	2706	1,36E-14	1,41E-14
2558	2706	1,36E-14	1,41E-14
2559	2706	1,36E-14	1,41E-14
2559	2707	1,12E-14	1,17E-14
2560	2707	1,12E-14	1,17E-14
2575	2707	1,12E-14	1,17E-14
2576	2707	1,12E-14	1,17E-14
2577	2708	1,25E-14	1,14E-14
2562	2708	1,25E-14	1,14E-14
2578	2708	1,25E-14	1,14E-14
2561	2708	1,25E-14	1,14E-14
2563	2709	1,32E-14	1,13E-14
2579	2709	1,32E-14	1,13E-14
2562	2709	1,32E-14	1,13E-14
2578	2709	1,32E-14	1,13E-14
2563	2710	9,66E-15	7,58E-15
2580	2710	9,66E-15	7,58E-15
2579	2710	9,66E-15	7,58E-15
2564	2710	9,66E-15	7,58E-15
2581	2711	8,81E-15	6,34E-15
2565	2711	8,81E-15	6,34E-15
2564	2711	8,81E-15	6,34E-15
2580	2711	8,81E-15	6,34E-15
2581	2712	1,03E-14	9,87E-15
2565	2712	1,03E-14	9,87E-15
2582	2712	1,03E-14	9,87E-15
2566	2712	1,03E-14	9,87E-15
2566	2713	6,32E-15	8,18E-15
2567	2713	6,32E-15	8,18E-15
2583	2713	6,32E-15	8,18E-15
2582	2713	6,32E-15	8,18E-15
2583	2714	3,47E-15	4,69E-15
2568	2714	3,47E-15	4,69E-15
2567	2714	3,47E-15	4,69E-15
2584	2714	3,47E-15	4,69E-15
2569	2715	4,56E-15	5,76E-15
2568	2715	4,56E-15	5,76E-15
2585	2715	4,56E-15	5,76E-15
2584	2715	4,56E-15	5,76E-15
2569	2716	5,49E-15	6,47E-15
2570	2716	5,49E-15	6,47E-15
2586	2716	5,49E-15	6,47E-15
2585	2716	5,49E-15	6,47E-15
2587	2717	5,62E-15	6,11E-15
2570	2717	5,62E-15	6,11E-15
2571	2717	5,62E-15	6,11E-15
2586	2717	5,62E-15	6,11E-15
2571	2718	9,46E-15	9,97E-15
2572	2718	9,46E-15	9,97E-15
2587	2718	9,46E-15	9,97E-15
2588	2718	9,46E-15	9,97E-15
2573	2719	1,05E-14	1,12E-14
2589	2719	1,05E-14	1,12E-14
2588	2719	1,05E-14	1,12E-14
2572	2719	1,05E-14	1,12E-14
2589	2720	8,04E-15	8,73E-15
2573	2720	8,04E-15	8,73E-15
2574	2720	8,04E-15	8,73E-15
2590	2720	8,04E-15	8,73E-15
2575	2721	5,02E-15	5,65E-15
2590	2721	5,02E-15	5,65E-15
2574	2721	5,02E-15	5,65E-15
2591	2721	5,02E-15	5,65E-15
2575	2722	4,10E-15	4,53E-15
2591	2722	4,10E-15	4,53E-15
2592	2722	4,10E-15	4,53E-15
2576	2722	4,10E-15	4,53E-15
2577	2723	8,12E-15	1,04E-14
2594	2723	8,12E-15	1,04E-14
2593	2723	8,12E-15	1,04E-14
2578	2723	8,12E-15	1,04E-14
2579	2724	9,95E-15	1,00E-14
2595	2724	9,95E-15	1,00E-14
2594	2724	9,95E-15	1,00E-14
2578	2724	9,95E-15	1,00E-14
2595	2725	1,20E-14	1,13E-14
2579	2725	1,20E-14	1,13E-14
2580	2725	1,20E-14	1,13E-14
2596	2725	1,20E-14	1,13E-14
2597	2726	1,31E-14	1,38E-14
2596	2726	1,31E-14	1,38E-14
2581	2726	1,31E-14	1,38E-14
2580	2726	1,31E-14	1,38E-14
2582	2727	9,19E-15	1,10E-14
2581	2727	9,19E-15	1,10E-14
2597	2727	9,19E-15	1,10E-14
2598	2727	9,19E-15	1,10E-14
2583	2728	5,10E-15	8,26E-15
2598	2728	5,10E-15	8,26E-15
2582	2728	5,10E-15	8,26E-15
2599	2728	5,10E-15	8,26E-15
2600	2729	4,49E-15	6,65E-15
2584	2729	4,49E-15	6,65E-15
2599	2729	4,49E-15	6,65E-15
2583	2729	4,49E-15	6,65E-15
2585	2730	5,61E-15	7,80E-15
2601	2730	5,61E-15	7,80E-15
2600	2730	5,61E-15	7,80E-15
2584	2730	5,61E-15	7,80E-15
2585	2731	8,63E-15	9,43E-15
2586	2731	8,63E-15	9,43E-15
2601	2731	8,63E-15	9,43E-15
2602	2731	8,63E-15	9,43E-15
2587	2732	8,32E-15	7,68E-15
2586	2732	8,32E-15	7,68E-15
2602	2732	8,32E-15	7,68E-15
2603	2732	8,32E-15	7,68E-15
2603	2733	7,74E-15	7,96E-15
2587	2733	7,74E-15	7,96E-15
2604	2733	7,74E-15	7,96E-15
2588	2733	7,74E-15	7,96E-15
2605	2734	1,06E-14	1,10E-14
2588	2734	1,06E-14	1,10E-14
2604	2734	1,06E-14	1,10E-14
2589	2734	1,06E-14	1,10E-14
2590	2735	1,34E-14	1,36E-14
2606	2735	1,34E-14	1,36E-14
2589	2735	1,34E-14	1,36E-14
2605	2735	1,34E-14	1,36E-14
2607	2736	1,10E-14	1,15E-14
2591	2736	1,10E-14	1,15E-14
2590	2736	1,10E-14	1,15E-14
2606	2736	1,10E-14	1,15E-14
2591	2737	7,19E-15	7,62E-15
2592	2737	7,19E-15	7,62E-15
2607	2737	7,19E-15	7,62E-15
2608	2737	7,19E-15	7,62E-15
2594	2738	5,37E-15	8,47E-15
2593	2738	5,37E-15	8,47E-15
2609	2738	5,37E-15	8,47E-15
2610	2738	5,37E-15	8,47E-15
2611	2739	8,23E-15	9,28E-15
2594	2739	8,23E-15	9,28E-15
2610	2739	8,23E-15	9,28E-15
2595	2739	8,23E-15	9,28E-15
2611	2740	1,22E-14	1,29E-14
2596	2740	1,22E-14	1,29E-14
2595	2740	1,22E-14	1,29E-14
2612	2740	1,22E-14	1,29E-14
2613	2741	1,39E-14	1,68E-14
2596	2741	1,39E-14	1,68E-14
2612	2741	1,39E-14	1,68E-14
2597	2741	1,39E-14	1,68E-14
2598	2742	8,98E-15	1,42E-14
2614	2742	8,98E-15	1,42E-14
2613	2742	8,98E-15	1,42E-14
2597	2742	8,98E-15	1,42E-14
2599	2743	3,76E-15	8,04E-15
2614	2743	3,76E-15	8,04E-15
2598	2743	3,76E-15	8,04E-15
2615	2743	3,76E-15	8,04E-15
2615	2744	5,94E-15	7,39E-15
2600	2744	5,94E-15	7,39E-15
2616	2744	5,94E-15	7,39E-15
2599	2744	5,94E-15	7,39E-15
2617	2745	6,47E-15	9,12E-15
2600	2745	6,47E-15	9,12E-15
2616	2745	6,47E-15	9,12E-15
2601	2745	6,47E-15	9,12E-15
2602	2746	8,80E-15	9,60E-15
2618	2746	8,80E-15	9,60E-15
2601	2746	8,80E-15	9,60E-15
2617	2746	8,80E-15	9,60E-15
2602	2747	8,70E-15	8,12E-15
2618	2747	8,70E-15	8,12E-15
2603	2747	8,70E-15	8,12E-15
2619	2747	8,70E-15	8,12E-15
2620	2748	6,86E-15	7,63E-15
2603	2748	6,86E-15	7,63E-15
2619	2748	6,86E-15	7,63E-15
2604	2748	6,86E-15	7,63E-15
2621	2749	6,89E-15	7,62E-15
2605	2749	6,89E-15	7,62E-15
2620	2749	6,89E-15	7,62E-15
2604	2749	6,89E-15	7,62E-15
2622	2750	9,21E-15	9,91E-15
2621	2750	9,21E-15	9,91E-15
2606	2750	9,21E-15	9,91E-15
2605	2750	9,21E-15	9,91E-15
2623	2751	1,09E-14	1,16E-14
2607	2751	1,09E-14	1,16E-14
2622	2751	1,09E-14	1,16E-14
2606	2751	1,09E-14	1,16E-14
2607	2752	9,21E-15	9,82E-15
2608	2752	9,21E-15	9,82E-15
2624	2752	9,21E-15	9,82E-15
2623	2752	9,21E-15	9,82E-15
2625	2753	5,30E-15	9,33E-15
2626	2753	5,30E-15	9,33E-15
2610	2753	5,30E-15	9,33E-15
2609	2753	5,30E-15	9,33E-15
2610	2754	6,71E-15	1,06E-14
2626	2754	6,71E-15	1,06E-14
2627	2754	6,71E-15	1,06E-14
2611	2754	6,71E-15	1,06E-14
2628	2755	8,91E-15	1,25E-14
2611	2755	8,91E-15	1,25E-14
2612	2755	8,91E-15	1,25E-14
2627	2755	8,91E-15	1,25E-14
2613	2756	1,07E-14	1,26E-14
2628	2756	1,07E-14	1,26E-14
2629	2756	1,07E-14	1,26E-14
2612	2756	1,07E-14	1,26E-14
2613	2757	7,33E-15	9,42E-15
2614	2757	7,33E-15	9,42E-15
2629	2757	7,33E-15	9,42E-15
2630	2757	7,33E-15	9,42E-15
2615	2758	3,31E-15	4,95E-15
2630	2758	3,31E-15	4,95E-15
2614	2758	3,31E-15	4,95E-15
2631	2758	3,31E-15	4,95E-15
2616	2759	6,78E-15	7,18E-15
2615	2759	6,78E-15	7,18E-15
2631	2759	6,78E-15	7,18E-15
2632	2759	6,78E-15	7,18E-15
2633	2760	9,09E-15	9,96E-15
2632	2760	9,09E-15	9,96E-15
2616	2760	9,09E-15	9,96E-15
2617	2760	9,09E-15	9,96E-15
2618	2761	7,04E-15	8,17E-15
2634	2761	7,04E-15	8,17E-15
2617	2761	7,04E-15	8,17E-15
2633	2761	7,04E-15	8,17E-15
2619	2762	6,40E-15	7,30E-15
2634	2762	6,40E-15	7,30E-15
2618	2762	6,40E-15	7,30E-15
2635	2762	6,40E-15	7,30E-15
2635	2763	6,08E-15	6,25E-15
2619	2763	6,08E-15	6,25E-15
2620	2763	6,08E-15	6,25E-15
2636	2763	6,08E-15	6,25E-15
2637	2764	6,21E-15	6,80E-15
2620	2764	6,21E-15	6,80E-15
2636	2764	6,21E-15	6,80E-15
2621	2764	6,21E-15	6,80E-15
2638	2765	7,19E-15	7,95E-15
2621	2765	7,19E-15	7,95E-15
2637	2765	7,19E-15	7,95E-15
2622	2765	7,19E-15	7,95E-15
2623	2766	7,94E-15	8,52E-15
2639	2766	7,94E-15	8,52E-15
2638	2766	7,94E-15	8,52E-15
2622	2766	7,94E-15	8,52E-15
2640	2767	8,48E-15	9,58E-15
2639	2767	8,48E-15	9,58E-15
2623	2767	8,48E-15	9,58E-15
2624	2767	8,48E-15	9,58E-15
3028	3027	4,03E-02	4,59E-02
3027	3027	4,03E-02	4,59E-02
3012	3027	4,03E-02	4,59E-02
3011	3027	4,03E-02	4,59E-02
3029	3028	4,37E-02	5,51E-02
3028	3028	4,37E-02	5,51E-02
3012	3028	4,37E-02	5,51E-02
3013	3028	4,37E-02	5,51E-02
3014	3029	5,21E-02	6,62E-02
3029	3029	5,21E-02	6,62E-02
3013	3029	5,21E-02	6,62E-02
3030	3029	5,21E-02	6,62E-02
3031	3030	6,36E-02	7,92E-02
3014	3030	6,36E-02	7,92E-02
3030	3030	6,36E-02	7,92E-02
3015	3030	6,36E-02	7,92E-02
3016	3031	7,65E-02	9,28E-02
3031	3031	7,65E-02	9,28E-02
3032	3031	7,65E-02	9,28E-02
3015	3031	7,65E-02	9,28E-02
3032	3032	9,02E-02	1,07E-01
3033	3032	9,02E-02	1,07E-01
3017	3032	9,02E-02	1,07E-01
3016	3032	9,02E-02	1,07E-01
3034	3033	1,04E-01	1,21E-01
3018	3033	1,04E-01	1,21E-01
3017	3033	1,04E-01	1,21E-01
3033	3033	1,04E-01	1,21E-01
3018	3034	1,19E-01	1,36E-01
3035	3034	1,19E-01	1,36E-01
3019	3034	1,19E-01	1,36E-01
3034	3034	1,19E-01	1,36E-01
3036	3035	1,33E-01	1,50E-01
3019	3035	1,33E-01	1,50E-01
3020	3035	1,33E-01	1,50E-01
3035	3035	1,33E-01	1,50E-01
3020	3036	1,48E-01	1,65E-01
3036	3036	1,48E-01	1,65E-01
3021	3036	1,48E-01	1,65E-01
3037	3036	1,48E-01	1,65E-01
3038	3037	1,63E-01	1,80E-01
3037	3037	1,63E-01	1,80E-01
3022	3037	1,63E-01	1,80E-01
3021	3037	1,63E-01	1,80E-01
3039	3038	1,78E-01	1,95E-01
3023	3038	1,78E-01	1,95E-01
3022	3038	1,78E-01	1,95E-01
3038	3038	1,78E-01	1,95E-01
3023	3039	1,92E-01	2,10E-01
3040	3039	1,92E-01	2,10E-01
3039	3039	1,92E-01	2,10E-01
3024	3039	1,92E-01	2,10E-01
3025	3040	2,08E-01	2,26E-01
3040	3040	2,08E-01	2,26E-01
3024	3040	2,08E-01	2,26E-01
3041	3040	2,08E-01	2,26E-01
3041	3041	2,36E-01	2,52E-01
3026	3041	2,36E-01	2,52E-01
3025	3041	2,36E-01	2,52E-01
3042	3041	2,36E-01	2,52E-01
3027	3042	5,14E-02	4,99E-02
3043	3042	5,14E-02	4,99E-02
3044	3042	5,14E-02	4,99E-02
3028	3042	5,14E-02	4,99E-02
3045	3043	5,84E-02	5,40E-02
3044	3043	5,84E-02	5,40E-02
3029	3043	5,84E-02	5,40E-02
3028	3043	5,84E-02	5,40E-02
3029	3044	6,84E-02	6,22E-02
3030	3044	6,84E-02	6,22E-02
3045	3044	6,84E-02	6,22E-02
3046	3044	6,84E-02	6,22E-02
3030	3045	8,01E-02	7,32E-02
3031	3045	8,01E-02	7,32E-02
3046	3045	8,01E-02	7,32E-02
3047	3045	8,01E-02	7,32E-02
3048	3046	9,30E-02	8,53E-02
3047	3046	9,30E-02	8,53E-02
3031	3046	9,30E-02	8,53E-02
3032	3046	9,30E-02	8,53E-02
3049	3047	1,06E-01	9,84E-02
3048	3047	1,06E-01	9,84E-02
3032	3047	1,06E-01	9,84E-02
3033	3047	1,06E-01	9,84E-02
3033	3048	1,20E-01	1,12E-01
3034	3048	1,20E-01	1,12E-01
3049	3048	1,20E-01	1,12E-01
3050	3048	1,20E-01	1,12E-01
3034	3049	1,35E-01	1,26E-01
3051	3049	1,35E-01	1,26E-01
3050	3049	1,35E-01	1,26E-01
3035	3049	1,35E-01	1,26E-01
3035	3050	1,49E-01	1,40E-01
3036	3050	1,49E-01	1,40E-01
3052	3050	1,49E-01	1,40E-01
3051	3050	1,49E-01	1,40E-01
3037	3051	1,63E-01	1,54E-01
3036	3051	1,63E-01	1,54E-01
3052	3051	1,63E-01	1,54E-01
3053	3051	1,63E-01	1,54E-01
3054	3052	1,78E-01	1,69E-01
3053	3052	1,78E-01	1,69E-01
3037	3052	1,78E-01	1,69E-01
3038	3052	1,78E-01	1,69E-01
3038	3053	1,92E-01	1,83E-01
3054	3053	1,92E-01	1,83E-01
3039	3053	1,92E-01	1,83E-01
3055	3053	1,92E-01	1,83E-01
3040	3054	2,07E-01	1,98E-01
3056	3054	2,07E-01	1,98E-01
3039	3054	2,07E-01	1,98E-01
3055	3054	2,07E-01	1,98E-01
3040	3055	2,23E-01	2,13E-01
3056	3055	2,23E-01	2,13E-01
3041	3055	2,23E-01	2,13E-01
3057	3055	2,23E-01	2,13E-01
3058	3056	2,23E-01	2,12E-01
3042	3056	2,23E-01	2,12E-01
3041	3056	2,23E-01	2,12E-01
3057	3056	2,23E-01	2,12E-01
3044	3057	4,39E-02	4,56E-02
3060	3057	4,39E-02	4,56E-02
3059	3057	4,39E-02	4,56E-02
3043	3057	4,39E-02	4,56E-02
3045	3058	5,08E-02	4,89E-02
3061	3058	5,08E-02	4,89E-02
3044	3058	5,08E-02	4,89E-02
3060	3058	5,08E-02	4,89E-02
3045	3059	5,73E-02	5,42E-02
3061	3059	5,73E-02	5,42E-02
3046	3059	5,73E-02	5,42E-02
3062	3059	5,73E-02	5,42E-02
3046	3060	6,49E-02	6,17E-02
3063	3060	6,49E-02	6,17E-02
3047	3060	6,49E-02	6,17E-02
3062	3060	6,49E-02	6,17E-02
3063	3061	7,34E-02	7,01E-02
3047	3061	7,34E-02	7,01E-02
3064	3061	7,34E-02	7,01E-02
3048	3061	7,34E-02	7,01E-02
3049	3062	8,26E-02	7,94E-02
3064	3062	8,26E-02	7,94E-02
3065	3062	8,26E-02	7,94E-02
3048	3062	8,26E-02	7,94E-02
3049	3063	9,22E-02	8,90E-02
3065	3063	9,22E-02	8,90E-02
3066	3063	9,22E-02	8,90E-02
3050	3063	9,22E-02	8,90E-02
3050	3064	1,02E-01	9,89E-02
3066	3064	1,02E-01	9,89E-02
3051	3064	1,02E-01	9,89E-02
3067	3064	1,02E-01	9,89E-02
3068	3065	1,12E-01	1,09E-01
3052	3065	1,12E-01	1,09E-01
3051	3065	1,12E-01	1,09E-01
3067	3065	1,12E-01	1,09E-01
3069	3066	1,23E-01	1,19E-01
3068	3066	1,23E-01	1,19E-01
3053	3066	1,23E-01	1,19E-01
3052	3066	1,23E-01	1,19E-01
3070	3067	1,33E-01	1,30E-01
3053	3067	1,33E-01	1,30E-01
3054	3067	1,33E-01	1,30E-01
3069	3067	1,33E-01	1,30E-01
3054	3068	1,44E-01	1,41E-01
3055	3068	1,44E-01	1,41E-01
3071	3068	1,44E-01	1,41E-01
3070	3068	1,44E-01	1,41E-01
3072	3069	1,58E-01	1,54E-01
3071	3069	1,58E-01	1,54E-01
3055	3069	1,58E-01	1,54E-01
3056	3069	1,58E-01	1,54E-01
3057	3070	1,74E-01	1,72E-01
3072	3070	1,74E-01	1,72E-01
3056	3070	1,74E-01	1,72E-01
3073	3070	1,74E-01	1,72E-01
3058	3071	1,93E-01	1,97E-01
3074	3071	1,93E-01	1,97E-01
3073	3071	1,93E-01	1,97E-01
3057	3071	1,93E-01	1,97E-01
3075	3072	3,71E-02	4,13E-02
3076	3072	3,71E-02	4,13E-02
3060	3072	3,71E-02	4,13E-02
3059	3072	3,71E-02	4,13E-02
3077	3073	3,82E-02	4,41E-02
3061	3073	3,82E-02	4,41E-02
3076	3073	3,82E-02	4,41E-02
3060	3073	3,82E-02	4,41E-02
3061	3074	4,07E-02	4,80E-02
3077	3074	4,07E-02	4,80E-02
3078	3074	4,07E-02	4,80E-02
3062	3074	4,07E-02	4,80E-02
3062	3075	4,41E-02	5,31E-02
3079	3075	4,41E-02	5,31E-02
3078	3075	4,41E-02	5,31E-02
3063	3075	4,41E-02	5,31E-02
3064	3076	4,82E-02	5,86E-02
3079	3076	4,82E-02	5,86E-02
3080	3076	4,82E-02	5,86E-02
3063	3076	4,82E-02	5,86E-02
3080	3077	5,32E-02	6,45E-02
3081	3077	5,32E-02	6,45E-02
3065	3077	5,32E-02	6,45E-02
3064	3077	5,32E-02	6,45E-02
3065	3078	5,86E-02	7,06E-02
3081	3078	5,86E-02	7,06E-02
3082	3078	5,86E-02	7,06E-02
3066	3078	5,86E-02	7,06E-02
3082	3079	6,45E-02	7,70E-02
3067	3079	6,45E-02	7,70E-02
3066	3079	6,45E-02	7,70E-02
3083	3079	6,45E-02	7,70E-02
3067	3080	7,05E-02	8,33E-02
3068	3080	7,05E-02	8,33E-02
3083	3080	7,05E-02	8,33E-02
3084	3080	7,05E-02	8,33E-02
3068	3081	7,68E-02	8,99E-02
3084	3081	7,68E-02	8,99E-02
3085	3081	7,68E-02	8,99E-02
3069	3081	7,68E-02	8,99E-02
3085	3082	8,34E-02	9,68E-02
3086	3082	8,34E-02	9,68E-02
3069	3082	8,34E-02	9,68E-02
3070	3082	8,34E-02	9,68E-02
3071	3083	9,17E-02	1,05E-01
3086	3083	9,17E-02	1,05E-01
3070	3083	9,17E-02	1,05E-01
3087	3083	9,17E-02	1,05E-01
3088	3084	1,03E-01	1,17E-01
3071	3084	1,03E-01	1,17E-01
3072	3084	1,03E-01	1,17E-01
3087	3084	1,03E-01	1,17E-01
3073	3085	1,26E-01	1,40E-01
3072	3085	1,26E-01	1,40E-01
3088	3085	1,26E-01	1,40E-01
3089	3085	1,26E-01	1,40E-01
3073	3086	1,77E-01	1,89E-01
3090	3086	1,77E-01	1,89E-01
3089	3086	1,77E-01	1,89E-01
3074	3086	1,77E-01	1,89E-01
3075	3087	4,44E-02	4,20E-02
3076	3087	4,44E-02	4,20E-02
3092	3087	4,44E-02	4,20E-02
3091	3087	4,44E-02	4,20E-02
3077	3088	4,41E-02	4,61E-02
3093	3088	4,41E-02	4,61E-02
3092	3088	4,41E-02	4,61E-02
3076	3088	4,41E-02	4,61E-02
3077	3089	4,59E-02	5,01E-02
3094	3089	4,59E-02	5,01E-02
3078	3089	4,59E-02	5,01E-02
3093	3089	4,59E-02	5,01E-02
3094	3090	4,92E-02	5,46E-02
3095	3090	4,92E-02	5,46E-02
3078	3090	4,92E-02	5,46E-02
3079	3090	4,92E-02	5,46E-02
3095	3091	5,33E-02	5,98E-02
3079	3091	5,33E-02	5,98E-02
3096	3091	5,33E-02	5,98E-02
3080	3091	5,33E-02	5,98E-02
3081	3092	5,82E-02	6,53E-02
3096	3092	5,82E-02	6,53E-02
3080	3092	5,82E-02	6,53E-02
3097	3092	5,82E-02	6,53E-02
3097	3093	6,37E-02	7,13E-02
3098	3093	6,37E-02	7,13E-02
3082	3093	6,37E-02	7,13E-02
3081	3093	6,37E-02	7,13E-02
3099	3094	6,95E-02	7,75E-02
3098	3094	6,95E-02	7,75E-02
3083	3094	6,95E-02	7,75E-02
3082	3094	6,95E-02	7,75E-02
3099	3095	7,58E-02	8,40E-02
3100	3095	7,58E-02	8,40E-02
3083	3095	7,58E-02	8,40E-02
3084	3095	7,58E-02	8,40E-02
3100	3096	8,22E-02	9,08E-02
3084	3096	8,22E-02	9,08E-02
3101	3096	8,22E-02	9,08E-02
3085	3096	8,22E-02	9,08E-02
3085	3097	8,91E-02	9,80E-02
3086	3097	8,91E-02	9,80E-02
3102	3097	8,91E-02	9,80E-02
3101	3097	8,91E-02	9,80E-02
3103	3098	9,66E-02	1,06E-01
3086	3098	9,66E-02	1,06E-01
3102	3098	9,66E-02	1,06E-01
3087	3098	9,66E-02	1,06E-01
3087	3099	1,07E-01	1,16E-01
3103	3099	1,07E-01	1,16E-01
3104	3099	1,07E-01	1,16E-01
3088	3099	1,07E-01	1,16E-01
3105	3100	1,28E-01	1,34E-01
3088	3100	1,28E-01	1,34E-01
3089	3100	1,28E-01	1,34E-01
3104	3100	1,28E-01	1,34E-01
3106	3101	1,62E-01	1,63E-01
3105	3101	1,62E-01	1,63E-01
3090	3101	1,62E-01	1,63E-01
3089	3101	1,62E-01	1,63E-01
3107	3102	4,93E-02	4,47E-02
3091	3102	4,93E-02	4,47E-02
3092	3102	4,93E-02	4,47E-02
3108	3102	4,93E-02	4,47E-02
3108	3103	4,97E-02	4,80E-02
3109	3103	4,97E-02	4,80E-02
3092	3103	4,97E-02	4,80E-02
3093	3103	4,97E-02	4,80E-02
3110	3104	5,11E-02	5,23E-02
3109	3104	5,11E-02	5,23E-02
3093	3104	5,11E-02	5,23E-02
3094	3104	5,11E-02	5,23E-02
3111	3105	5,39E-02	5,65E-02
3110	3105	5,39E-02	5,65E-02
3094	3105	5,39E-02	5,65E-02
3095	3105	5,39E-02	5,65E-02
3112	3106	5,80E-02	6,09E-02
3111	3106	5,80E-02	6,09E-02
3095	3106	5,80E-02	6,09E-02
3096	3106	5,80E-02	6,09E-02
3112	3107	6,29E-02	6,61E-02
3096	3107	6,29E-02	6,61E-02
3113	3107	6,29E-02	6,61E-02
3097	3107	6,29E-02	6,61E-02
3097	3108	6,83E-02	7,18E-02
3113	3108	6,83E-02	7,18E-02
3098	3108	6,83E-02	7,18E-02
3114	3108	6,83E-02	7,18E-02
3114	3109	7,43E-02	7,79E-02
3099	3109	7,43E-02	7,79E-02
3115	3109	7,43E-02	7,79E-02
3098	3109	7,43E-02	7,79E-02
3099	3110	8,06E-02	8,45E-02
3115	3110	8,06E-02	8,45E-02
3116	3110	8,06E-02	8,45E-02
3100	3110	8,06E-02	8,45E-02
3101	3111	8,74E-02	9,14E-02
3116	3111	8,74E-02	9,14E-02
3100	3111	8,74E-02	9,14E-02
3117	3111	8,74E-02	9,14E-02
3117	3112	9,43E-02	9,87E-02
3102	3112	9,43E-02	9,87E-02
3118	3112	9,43E-02	9,87E-02
3101	3112	9,43E-02	9,87E-02
3102	3113	1,01E-01	1,06E-01
3118	3113	1,01E-01	1,06E-01
3119	3113	1,01E-01	1,06E-01
3103	3113	1,01E-01	1,06E-01
3103	3114	1,08E-01	1,13E-01
3104	3114	1,08E-01	1,13E-01
3120	3114	1,08E-01	1,13E-01
3119	3114	1,08E-01	1,13E-01
3121	3115	1,17E-01	1,20E-01
3104	3115	1,17E-01	1,20E-01
3105	3115	1,17E-01	1,20E-01
3120	3115	1,17E-01	1,20E-01
3106	3116	1,33E-01	1,36E-01
3122	3116	1,33E-01	1,36E-01
3121	3116	1,33E-01	1,36E-01
3105	3116	1,33E-01	1,36E-01
3124	3117	5,34E-02	4,87E-02
3107	3117	5,34E-02	4,87E-02
3123	3117	5,34E-02	4,87E-02
3108	3117	5,34E-02	4,87E-02
3124	3118	5,38E-02	5,19E-02
3108	3118	5,38E-02	5,19E-02
3109	3118	5,38E-02	5,19E-02
3125	3118	5,38E-02	5,19E-02
3110	3119	5,54E-02	5,51E-02
3125	3119	5,54E-02	5,51E-02
3109	3119	5,54E-02	5,51E-02
3126	3119	5,54E-02	5,51E-02
3110	3120	5,85E-02	5,83E-02
3127	3120	5,85E-02	5,83E-02
3111	3120	5,85E-02	5,83E-02
3126	3120	5,85E-02	5,83E-02
3128	3121	6,26E-02	6,23E-02
3127	3121	6,26E-02	6,23E-02
3111	3121	6,26E-02	6,23E-02
3112	3121	6,26E-02	6,23E-02
3112	3122	6,72E-02	6,69E-02
3128	3122	6,72E-02	6,69E-02
3113	3122	6,72E-02	6,69E-02
3129	3122	6,72E-02	6,69E-02
3114	3123	7,25E-02	7,21E-02
3129	3123	7,25E-02	7,21E-02
3130	3123	7,25E-02	7,21E-02
3113	3123	7,25E-02	7,21E-02
3114	3124	7,83E-02	7,78E-02
3130	3124	7,83E-02	7,78E-02
3115	3124	7,83E-02	7,78E-02
3131	3124	7,83E-02	7,78E-02
3115	3125	8,45E-02	8,40E-02
3132	3125	8,45E-02	8,40E-02
3116	3125	8,45E-02	8,40E-02
3131	3125	8,45E-02	8,40E-02
3133	3126	9,11E-02	9,07E-02
3116	3126	9,11E-02	9,07E-02
3117	3126	9,11E-02	9,07E-02
3132	3126	9,11E-02	9,07E-02
3117	3127	9,75E-02	9,72E-02
3133	3127	9,75E-02	9,72E-02
3118	3127	9,75E-02	9,72E-02
3134	3127	9,75E-02	9,72E-02
3118	3128	1,03E-01	1,03E-01
3134	3128	1,03E-01	1,03E-01
3119	3128	1,03E-01	1,03E-01
3135	3128	1,03E-01	1,03E-01
3119	3129	1,05E-01	1,06E-01
3120	3129	1,05E-01	1,06E-01
3135	3129	1,05E-01	1,06E-01
3136	3129	1,05E-01	1,06E-01
3120	3130	9,99E-02	1,03E-01
3137	3130	9,99E-02	1,03E-01
3121	3130	9,99E-02	1,03E-01
3136	3130	9,99E-02	1,03E-01
3137	3131	1,06E-01	1,07E-01
3138	3131	1,06E-01	1,07E-01
3122	3131	1,06E-01	1,07E-01
3121	3131	1,06E-01	1,07E-01
3124	3132	5,66E-02	5,53E-02
3140	3132	5,66E-02	5,53E-02
3123	3132	5,66E-02	5,53E-02
3139	3132	5,66E-02	5,53E-02
3140	3133	5,66E-02	5,71E-02
3124	3133	5,66E-02	5,71E-02
3125	3133	5,66E-02	5,71E-02
3141	3133	5,66E-02	5,71E-02
3126	3134	5,94E-02	5,81E-02
3141	3134	5,94E-02	5,81E-02
3125	3134	5,94E-02	5,81E-02
3142	3134	5,94E-02	5,81E-02
3127	3135	6,30E-02	6,04E-02
3126	3135	6,30E-02	6,04E-02
3143	3135	6,30E-02	6,04E-02
3142	3135	6,30E-02	6,04E-02
3143	3136	6,70E-02	6,37E-02
3127	3136	6,70E-02	6,37E-02
3128	3136	6,70E-02	6,37E-02
3144	3136	6,70E-02	6,37E-02
3128	3137	7,14E-02	6,77E-02
3144	3137	7,14E-02	6,77E-02
3129	3137	7,14E-02	6,77E-02
3145	3137	7,14E-02	6,77E-02
3145	3138	7,63E-02	7,22E-02
3129	3138	7,63E-02	7,22E-02
3130	3138	7,63E-02	7,22E-02
3146	3138	7,63E-02	7,22E-02
3131	3139	8,16E-02	7,71E-02
3146	3139	8,16E-02	7,71E-02
3147	3139	8,16E-02	7,71E-02
3130	3139	8,16E-02	7,71E-02
3132	3140	8,72E-02	8,25E-02
3147	3140	8,72E-02	8,25E-02
3131	3140	8,72E-02	8,25E-02
3148	3140	8,72E-02	8,25E-02
3149	3141	9,28E-02	8,79E-02
3133	3141	9,28E-02	8,79E-02
3148	3141	9,28E-02	8,79E-02
3132	3141	9,28E-02	8,79E-02
3134	3142	9,82E-02	9,30E-02
3149	3142	9,82E-02	9,30E-02
3133	3142	9,82E-02	9,30E-02
3150	3142	9,82E-02	9,30E-02
3135	3143	1,02E-01	9,65E-02
3150	3143	1,02E-01	9,65E-02
3151	3143	1,02E-01	9,65E-02
3134	3143	1,02E-01	9,65E-02
3135	3144	1,00E-01	9,58E-02
3151	3144	1,00E-01	9,58E-02
3152	3144	1,00E-01	9,58E-02
3136	3144	1,00E-01	9,58E-02
3136	3145	8,69E-02	8,48E-02
3153	3145	8,69E-02	8,48E-02
3137	3145	8,69E-02	8,48E-02
3152	3145	8,69E-02	8,48E-02
3138	3146	7,96E-02	7,85E-02
3153	3146	7,96E-02	7,85E-02
3137	3146	7,96E-02	7,85E-02
3154	3146	7,96E-02	7,85E-02
3139	3147	5,76E-02	6,24E-02
3140	3147	5,76E-02	6,24E-02
3155	3147	5,76E-02	6,24E-02
3156	3147	5,76E-02	6,24E-02
3157	3148	6,06E-02	6,06E-02
3140	3148	6,06E-02	6,06E-02
3156	3148	6,06E-02	6,06E-02
3141	3148	6,06E-02	6,06E-02
3157	3149	6,41E-02	6,09E-02
3141	3149	6,41E-02	6,09E-02
3158	3149	6,41E-02	6,09E-02
3142	3149	6,41E-02	6,09E-02
3158	3150	6,76E-02	6,28E-02
3142	3150	6,76E-02	6,28E-02
3143	3150	6,76E-02	6,28E-02
3159	3150	6,76E-02	6,28E-02
3144	3151	7,14E-02	6,55E-02
3159	3151	7,14E-02	6,55E-02
3143	3151	7,14E-02	6,55E-02
3160	3151	7,14E-02	6,55E-02
3145	3152	7,55E-02	6,88E-02
3160	3152	7,55E-02	6,88E-02
3161	3152	7,55E-02	6,88E-02
3144	3152	7,55E-02	6,88E-02
3145	3153	7,99E-02	7,25E-02
3161	3153	7,99E-02	7,25E-02
3162	3153	7,99E-02	7,25E-02
3146	3153	7,99E-02	7,25E-02
3146	3154	8,45E-02	7,64E-02
3162	3154	8,45E-02	7,64E-02
3163	3154	8,45E-02	7,64E-02
3147	3154	8,45E-02	7,64E-02
3163	3155	8,90E-02	8,03E-02
3147	3155	8,90E-02	8,03E-02
3148	3155	8,90E-02	8,03E-02
3164	3155	8,90E-02	8,03E-02
3164	3156	9,31E-02	8,38E-02
3148	3156	9,31E-02	8,38E-02
3149	3156	9,31E-02	8,38E-02
3165	3156	9,31E-02	8,38E-02
3149	3157	9,62E-02	8,63E-02
3165	3157	9,62E-02	8,63E-02
3166	3157	9,62E-02	8,63E-02
3150	3157	9,62E-02	8,63E-02
3167	3158	9,68E-02	8,62E-02
3166	3158	9,68E-02	8,62E-02
3150	3158	9,68E-02	8,62E-02
3151	3158	9,68E-02	8,62E-02
3152	3159	9,28E-02	8,12E-02
3167	3159	9,28E-02	8,12E-02
3168	3159	9,28E-02	8,12E-02
3151	3159	9,28E-02	8,12E-02
3153	3160	7,82E-02	6,66E-02
3168	3160	7,82E-02	6,66E-02
3152	3160	7,82E-02	6,66E-02
3169	3160	7,82E-02	6,66E-02
3169	3161	6,10E-02	5,85E-02
3170	3161	6,10E-02	5,85E-02
3153	3161	6,10E-02	5,85E-02
3154	3161	6,10E-02	5,85E-02
3172	3162	3,09E-02	3,43E-02
3171	3162	3,09E-02	3,43E-02
3155	3162	3,09E-02	3,43E-02
3156	3162	3,09E-02	3,43E-02
3157	3163	3,37E-02	3,32E-02
3173	3163	3,37E-02	3,32E-02
3156	3163	3,37E-02	3,32E-02
3172	3163	3,37E-02	3,32E-02
3174	3164	3,55E-02	3,36E-02
3158	3164	3,55E-02	3,36E-02
3173	3164	3,55E-02	3,36E-02
3157	3164	3,55E-02	3,36E-02
3158	3165	3,74E-02	3,48E-02
3174	3165	3,74E-02	3,48E-02
3159	3165	3,74E-02	3,48E-02
3175	3165	3,74E-02	3,48E-02
3176	3166	3,95E-02	3,62E-02
3175	3166	3,95E-02	3,62E-02
3159	3166	3,95E-02	3,62E-02
3160	3166	3,95E-02	3,62E-02
3161	3167	4,18E-02	3,79E-02
3160	3167	4,18E-02	3,79E-02
3177	3167	4,18E-02	3,79E-02
3176	3167	4,18E-02	3,79E-02
3162	3168	4,41E-02	3,98E-02
3161	3168	4,41E-02	3,98E-02
3177	3168	4,41E-02	3,98E-02
3178	3168	4,41E-02	3,98E-02
3179	3169	4,65E-02	4,18E-02
3178	3169	4,65E-02	4,18E-02
3162	3169	4,65E-02	4,18E-02
3163	3169	4,65E-02	4,18E-02
3163	3170	4,88E-02	4,37E-02
3164	3170	4,88E-02	4,37E-02
3180	3170	4,88E-02	4,37E-02
3179	3170	4,88E-02	4,37E-02
3165	3171	5,07E-02	4,52E-02
3164	3171	5,07E-02	4,52E-02
3180	3171	5,07E-02	4,52E-02
3181	3171	5,07E-02	4,52E-02
3166	3172	5,19E-02	4,59E-02
3165	3172	5,19E-02	4,59E-02
3182	3172	5,19E-02	4,59E-02
3181	3172	5,19E-02	4,59E-02
3167	3173	5,19E-02	4,53E-02
3182	3173	5,19E-02	4,53E-02
3166	3173	5,19E-02	4,53E-02
3183	3173	5,19E-02	4,53E-02
3167	3174	4,91E-02	4,17E-02
3183	3174	4,91E-02	4,17E-02
3168	3174	4,91E-02	4,17E-02
3184	3174	4,91E-02	4,17E-02
3168	3175	4,30E-02	3,44E-02
3169	3175	4,30E-02	3,44E-02
3184	3175	4,30E-02	3,44E-02
3185	3175	4,30E-02	3,44E-02
3186	3176	3,36E-02	3,21E-02
3170	3176	3,36E-02	3,21E-02
3185	3176	3,36E-02	3,21E-02
3169	3176	3,36E-02	3,21E-02
1089	1	7,87E-04	8,85E-04
545	1	7,87E-04	8,85E-04
1688	4	1,07E-02	1,67E-02
1617	4	1,07E-02	1,67E-02
1074	5	2,59E-03	2,66E-03
560	5	2,59E-03	2,66E-03
640	6	1,56E-14	1,69E-14
625	7	1,24E-14	1,03E-14
1673	11	3,49E-01	3,62E-01
1602	11	3,49E-01	3,62E-01
2656	18	2,37E-02	3,28E-02
1752	18	2,37E-02	3,28E-02
1737	20	3,97E-01	4,26E-01
2641	20	3,97E-01	4,26E-01
2720	22	4,14E-02	4,38E-02
2384	22	4,14E-02	4,38E-02
2369	23	2,66E-01	2,79E-01
2705	23	2,66E-01	2,79E-01
2529	26	6,18E-03	6,36E-03
2915	26	6,18E-03	6,36E-03
2544	30	1,92E-03	2,16E-03
2930	30	1,92E-03	2,16E-03
3010	32	8,95E-15	1,40E-14
2995	34	5,51E-15	5,18E-15
1601	99	8,99E-03	1,91E-02
1617	99	8,99E-03	1,91E-02
1585	100	9,76E-03	2,02E-02
1601	100	9,76E-03	2,02E-02
1585	101	2,16E-02	2,32E-02
1569	101	2,16E-02	2,32E-02
1553	102	3,38E-02	3,67E-02
1569	102	3,38E-02	3,67E-02
1537	103	4,27E-02	5,21E-02
1553	103	4,27E-02	5,21E-02
1537	104	2,80E-02	3,55E-02
1521	104	2,80E-02	3,55E-02
1505	105	6,71E-03	1,48E-02
1521	105	6,71E-03	1,48E-02
1489	106	8,56E-03	1,45E-02
1505	106	8,56E-03	1,45E-02
1473	107	1,73E-02	1,94E-02
1489	107	1,73E-02	1,94E-02
1457	108	2,63E-02	2,63E-02
1473	108	2,63E-02	2,63E-02
1457	109	3,59E-02	3,78E-02
1441	109	3,59E-02	3,78E-02
1441	110	4,21E-02	5,05E-02
1425	110	4,21E-02	5,05E-02
1425	111	2,39E-02	3,13E-02
1409	111	2,39E-02	3,13E-02
1409	112	5,62E-03	9,75E-03
1393	112	5,62E-03	9,75E-03
1393	113	1,14E-02	1,24E-02
1377	113	1,14E-02	1,24E-02
1361	114	1,82E-02	1,81E-02
1377	114	1,82E-02	1,81E-02
1345	115	2,47E-02	2,36E-02
1361	115	2,47E-02	2,36E-02
1345	116	3,16E-02	3,21E-02
1329	116	3,16E-02	3,21E-02
1329	117	3,56E-02	4,20E-02
1313	117	3,56E-02	4,20E-02
1313	118	2,18E-02	2,77E-02
1297	118	2,18E-02	2,77E-02
1281	119	1,07E-02	1,14E-02
1297	119	1,07E-02	1,14E-02
1281	120	1,62E-02	1,47E-02
1265	120	1,62E-02	1,47E-02
1249	121	2,06E-02	1,83E-02
1265	121	2,06E-02	1,83E-02
1249	122	2,52E-02	2,41E-02
1233	122	2,52E-02	2,41E-02
1233	123	2,72E-02	3,10E-02
1217	123	2,72E-02	3,10E-02
1217	124	2,00E-02	2,45E-02
1201	124	2,00E-02	2,45E-02
1185	125	1,51E-02	1,65E-02
1201	125	1,51E-02	1,65E-02
1185	126	1,86E-02	1,63E-02
1169	126	1,86E-02	1,63E-02
1153	127	2,03E-02	1,80E-02
1169	127	2,03E-02	1,80E-02
1137	128	2,20E-02	1,96E-02
1153	128	2,20E-02	1,96E-02
1137	129	2,38E-02	2,23E-02
1121	129	2,38E-02	2,23E-02
1121	130	2,34E-02	2,65E-02
1105	130	2,34E-02	2,65E-02
1105	131	1,20E-02	1,46E-02
1089	131	1,20E-02	1,46E-02
546	132	8,00E-04	9,01E-04
1088	132	8,00E-04	9,01E-04
545	132	8,00E-04	9,01E-04
1089	132	8,00E-04	9,01E-04
546	133	8,43E-04	9,47E-04
1087	133	8,43E-04	9,47E-04
547	133	8,43E-04	9,47E-04
1088	133	8,43E-04	9,47E-04
1087	134	9,12E-04	1,02E-03
547	134	9,12E-04	1,02E-03
1086	134	9,12E-04	1,02E-03
548	134	9,12E-04	1,02E-03
1086	135	1,00E-03	1,10E-03
549	135	1,00E-03	1,10E-03
1085	135	1,00E-03	1,10E-03
548	135	1,00E-03	1,10E-03
1085	136	1,11E-03	1,21E-03
1084	136	1,11E-03	1,21E-03
549	136	1,11E-03	1,21E-03
550	136	1,11E-03	1,21E-03
551	137	1,23E-03	1,32E-03
550	137	1,23E-03	1,32E-03
1083	137	1,23E-03	1,32E-03
1084	137	1,23E-03	1,32E-03
551	138	1,35E-03	1,45E-03
1082	138	1,35E-03	1,45E-03
552	138	1,35E-03	1,45E-03
1083	138	1,35E-03	1,45E-03
1082	139	1,49E-03	1,58E-03
1081	139	1,49E-03	1,58E-03
552	139	1,49E-03	1,58E-03
553	139	1,49E-03	1,58E-03
554	140	1,63E-03	1,71E-03
1080	140	1,63E-03	1,71E-03
1081	140	1,63E-03	1,71E-03
553	140	1,63E-03	1,71E-03
555	141	1,77E-03	1,85E-03
1079	141	1,77E-03	1,85E-03
1080	141	1,77E-03	1,85E-03
554	141	1,77E-03	1,85E-03
1079	142	1,91E-03	1,99E-03
1078	142	1,91E-03	1,99E-03
556	142	1,91E-03	1,99E-03
555	142	1,91E-03	1,99E-03
556	143	2,06E-03	2,14E-03
557	143	2,06E-03	2,14E-03
1078	143	2,06E-03	2,14E-03
1077	143	2,06E-03	2,14E-03
1076	144	2,21E-03	2,29E-03
1077	144	2,21E-03	2,29E-03
557	144	2,21E-03	2,29E-03
558	144	2,21E-03	2,29E-03
558	145	2,36E-03	2,44E-03
559	145	2,36E-03	2,44E-03
1076	145	2,36E-03	2,44E-03
1075	145	2,36E-03	2,44E-03
559	146	2,51E-03	2,59E-03
1075	146	2,51E-03	2,59E-03
560	146	2,51E-03	2,59E-03
1074	146	2,51E-03	2,59E-03
576	147	1,74E-14	1,71E-14
560	147	1,74E-14	1,71E-14
592	148	1,71E-14	1,74E-14
576	148	1,71E-14	1,74E-14
608	149	1,31E-14	1,37E-14
592	149	1,31E-14	1,37E-14
624	150	1,66E-14	1,74E-14
608	150	1,66E-14	1,74E-14
624	151	1,60E-14	1,71E-14
640	151	1,60E-14	1,71E-14
640	152	9,82E-15	1,05E-14
639	152	9,82E-15	1,05E-14
639	153	5,98E-15	6,25E-15
638	153	5,98E-15	6,25E-15
638	154	1,06E-14	1,09E-14
637	154	1,06E-14	1,09E-14
636	155	1,64E-14	1,60E-14
637	155	1,64E-14	1,60E-14
636	156	1,20E-14	1,16E-14
635	156	1,20E-14	1,16E-14
635	157	6,33E-15	6,07E-15
634	157	6,33E-15	6,07E-15
634	158	9,63E-15	9,78E-15
633	158	9,63E-15	9,78E-15
633	159	1,11E-14	1,16E-14
632	159	1,11E-14	1,16E-14
631	160	1,03E-14	1,03E-14
632	160	1,03E-14	1,03E-14
631	161	1,48E-14	1,32E-14
630	161	1,48E-14	1,32E-14
629	162	1,16E-14	1,07E-14
630	162	1,16E-14	1,07E-14
628	163	5,69E-15	6,14E-15
629	163	5,69E-15	6,14E-15
627	164	1,60E-14	1,05E-14
628	164	1,60E-14	1,05E-14
627	165	2,26E-14	1,56E-14
626	165	2,26E-14	1,56E-14
625	166	1,71E-14	1,42E-14
626	166	1,71E-14	1,42E-14
625	167	1,20E-14	1,11E-14
609	167	1,20E-14	1,11E-14
609	168	7,81E-15	8,12E-15
593	168	7,81E-15	8,12E-15
577	169	5,87E-15	5,99E-15
593	169	5,87E-15	5,99E-15
561	170	7,30E-15	8,72E-15
577	170	7,30E-15	8,72E-15
561	171	8,57E-15	1,31E-14
545	171	8,57E-15	1,31E-14
1074	194	1,17E-02	1,42E-02
1090	194	1,17E-02	1,42E-02
1090	195	2,33E-02	2,57E-02
1106	195	2,33E-02	2,57E-02
1106	196	3,53E-02	3,45E-02
1122	196	3,53E-02	3,45E-02
1122	197	4,87E-02	4,76E-02
1138	197	4,87E-02	4,76E-02
1154	198	6,08E-02	6,25E-02
1138	198	6,08E-02	6,25E-02
1154	199	7,59E-02	7,51E-02
1170	199	7,59E-02	7,51E-02
1186	200	8,87E-02	9,26E-02
1170	200	8,87E-02	9,26E-02
1186	201	8,45E-02	8,74E-02
1202	201	8,45E-02	8,74E-02
1218	202	8,51E-02	8,24E-02
1202	202	8,51E-02	8,24E-02
1218	203	1,04E-01	1,04E-01
1234	203	1,04E-01	1,04E-01
1234	204	1,20E-01	1,23E-01
1250	204	1,20E-01	1,23E-01
1250	205	1,36E-01	1,36E-01
1266	205	1,36E-01	1,36E-01
1282	206	1,49E-01	1,53E-01
1266	206	1,49E-01	1,53E-01
1282	207	1,45E-01	1,49E-01
1298	207	1,45E-01	1,49E-01
1298	208	1,48E-01	1,44E-01
1314	208	1,48E-01	1,44E-01
1314	209	1,66E-01	1,68E-01
1330	209	1,66E-01	1,68E-01
1330	210	1,84E-01	1,86E-01
1346	210	1,84E-01	1,86E-01
1346	211	1,97E-01	2,02E-01
1362	211	1,97E-01	2,02E-01
1362	212	2,13E-01	2,14E-01
1378	212	2,13E-01	2,14E-01
1394	213	2,25E-01	2,28E-01
1378	213	2,25E-01	2,28E-01
1394	214	2,17E-01	2,23E-01
1410	214	2,17E-01	2,23E-01
1410	215	2,22E-01	2,18E-01
1426	215	2,22E-01	2,18E-01
1426	216	2,41E-01	2,44E-01
1442	216	2,41E-01	2,44E-01
1458	217	2,59E-01	2,62E-01
1442	217	2,59E-01	2,62E-01
1458	218	2,73E-01	2,79E-01
1474	218	2,73E-01	2,79E-01
1490	219	2,88E-01	2,89E-01
1474	219	2,88E-01	2,89E-01
1506	220	2,98E-01	3,02E-01
1490	220	2,98E-01	3,02E-01
1506	221	2,89E-01	2,97E-01
1522	221	2,89E-01	2,97E-01
1522	222	2,94E-01	2,92E-01
1538	222	2,94E-01	2,92E-01
1554	223	3,17E-01	3,19E-01
1538	223	3,17E-01	3,19E-01
1570	224	3,33E-01	3,42E-01
1554	224	3,33E-01	3,42E-01
1586	225	3,50E-01	3,51E-01
1570	225	3,50E-01	3,51E-01
1602	226	3,59E-01	3,64E-01
1586	226	3,59E-01	3,64E-01
1752	339	1,18E-02	1,91E-02
1736	339	1,18E-02	1,91E-02
1736	340	2,13E-02	2,97E-02
1720	340	2,13E-02	2,97E-02
1720	341	3,48E-02	4,30E-02
1704	341	3,48E-02	4,30E-02
1688	342	2,42E-02	3,02E-02
1704	342	2,42E-02	3,02E-02
1688	343	2,03E-02	2,72E-02
1687	343	2,03E-02	2,72E-02
1616	343	2,03E-02	2,72E-02
1617	343	2,03E-02	2,72E-02
1615	344	4,02E-02	4,86E-02
1616	344	4,02E-02	4,86E-02
1687	344	4,02E-02	4,86E-02
1686	344	4,02E-02	4,86E-02
1686	345	6,10E-02	7,02E-02
1685	345	6,10E-02	7,02E-02
1614	345	6,10E-02	7,02E-02
1615	345	6,10E-02	7,02E-02
1613	346	8,22E-02	9,18E-02
1685	346	8,22E-02	9,18E-02
1684	346	8,22E-02	9,18E-02
1614	346	8,22E-02	9,18E-02
1684	347	1,04E-01	1,13E-01
1683	347	1,04E-01	1,13E-01
1612	347	1,04E-01	1,13E-01
1613	347	1,04E-01	1,13E-01
1683	348	1,25E-01	1,35E-01
1682	348	1,25E-01	1,35E-01
1612	348	1,25E-01	1,35E-01
1611	348	1,25E-01	1,35E-01
1611	349	1,46E-01	1,56E-01
1682	349	1,46E-01	1,56E-01
1610	349	1,46E-01	1,56E-01
1681	349	1,46E-01	1,56E-01
1609	350	1,68E-01	1,77E-01
1680	350	1,68E-01	1,77E-01
1681	350	1,68E-01	1,77E-01
1610	350	1,68E-01	1,77E-01
1679	351	1,89E-01	1,98E-01
1680	351	1,89E-01	1,98E-01
1608	351	1,89E-01	1,98E-01
1609	351	1,89E-01	1,98E-01
1678	352	2,10E-01	2,19E-01
1608	352	2,10E-01	2,19E-01
1679	352	2,10E-01	2,19E-01
1607	352	2,10E-01	2,19E-01
1678	353	2,31E-01	2,40E-01
1606	353	2,31E-01	2,40E-01
1607	353	2,31E-01	2,40E-01
1677	353	2,31E-01	2,40E-01
1676	354	2,52E-01	2,61E-01
1606	354	2,52E-01	2,61E-01
1605	354	2,52E-01	2,61E-01
1677	354	2,52E-01	2,61E-01
1676	355	2,74E-01	2,82E-01
1675	355	2,74E-01	2,82E-01
1605	355	2,74E-01	2,82E-01
1604	355	2,74E-01	2,82E-01
1675	356	2,98E-01	3,05E-01
1603	356	2,98E-01	3,05E-01
1604	356	2,98E-01	3,05E-01
1674	356	2,98E-01	3,05E-01
1674	357	3,29E-01	3,40E-01
1602	357	3,29E-01	3,40E-01
1673	357	3,29E-01	3,40E-01
1603	357	3,29E-01	3,40E-01
2656	374	2,91E-02	4,38E-02
2655	374	2,91E-02	4,38E-02
1752	374	2,91E-02	4,38E-02
1751	374	2,91E-02	4,38E-02
1751	375	4,43E-02	6,67E-02
1750	375	4,43E-02	6,67E-02
2654	375	4,43E-02	6,67E-02
2655	375	4,43E-02	6,67E-02
1750	376	6,53E-02	9,04E-02
1749	376	6,53E-02	9,04E-02
2654	376	6,53E-02	9,04E-02
2653	376	6,53E-02	9,04E-02
2653	377	8,84E-02	1,14E-01
1749	377	8,84E-02	1,14E-01
1748	377	8,84E-02	1,14E-01
2652	377	8,84E-02	1,14E-01
2651	378	1,12E-01	1,39E-01
2652	378	1,12E-01	1,39E-01
1747	378	1,12E-01	1,39E-01
1748	378	1,12E-01	1,39E-01
1747	379	1,36E-01	1,63E-01
2650	379	1,36E-01	1,63E-01
2651	379	1,36E-01	1,63E-01
1746	379	1,36E-01	1,63E-01
1746	380	1,61E-01	1,87E-01
2650	380	1,61E-01	1,87E-01
1745	380	1,61E-01	1,87E-01
2649	380	1,61E-01	1,87E-01
1745	381	1,85E-01	2,12E-01
2648	381	1,85E-01	2,12E-01
1744	381	1,85E-01	2,12E-01
2649	381	1,85E-01	2,12E-01
1744	382	2,09E-01	2,36E-01
2648	382	2,09E-01	2,36E-01
1743	382	2,09E-01	2,36E-01
2647	382	2,09E-01	2,36E-01
2646	383	2,33E-01	2,60E-01
2647	383	2,33E-01	2,60E-01
1743	383	2,33E-01	2,60E-01
1742	383	2,33E-01	2,60E-01
1741	384	2,57E-01	2,84E-01
2645	384	2,57E-01	2,84E-01
1742	384	2,57E-01	2,84E-01
2646	384	2,57E-01	2,84E-01
1740	385	2,81E-01	3,08E-01
2645	385	2,81E-01	3,08E-01
1741	385	2,81E-01	3,08E-01
2644	385	2,81E-01	3,08E-01
1740	386	3,06E-01	3,32E-01
2643	386	3,06E-01	3,32E-01
1739	386	3,06E-01	3,32E-01
2644	386	3,06E-01	3,32E-01
1739	387	3,28E-01	3,55E-01
2643	387	3,28E-01	3,55E-01
1738	387	3,28E-01	3,55E-01
2642	387	3,28E-01	3,55E-01
2642	388	3,67E-01	3,96E-01
1737	388	3,67E-01	3,96E-01
2641	388	3,67E-01	3,96E-01
1738	388	3,67E-01	3,96E-01
1737	389	4,08E-01	4,16E-01
1721	389	4,08E-01	4,16E-01
1705	390	3,96E-01	3,97E-01
1721	390	3,96E-01	3,97E-01
1689	391	3,69E-01	3,71E-01
1705	391	3,69E-01	3,71E-01
1673	392	3,48E-01	3,50E-01
1689	392	3,48E-01	3,50E-01
2704	412	5,13E-02	5,26E-02
2720	412	5,13E-02	5,26E-02
2688	413	3,85E-02	4,12E-02
2704	413	3,85E-02	4,12E-02
2672	414	3,87E-02	3,78E-02
2688	414	3,87E-02	3,78E-02
2672	415	4,39E-02	4,60E-02
2656	415	4,39E-02	4,60E-02
2657	420	3,69E-01	3,74E-01
2641	420	3,69E-01	3,74E-01
2657	421	3,51E-01	3,57E-01
2673	421	3,51E-01	3,57E-01
2689	422	3,37E-01	3,50E-01
2673	422	3,37E-01	3,50E-01
2705	423	2,92E-01	2,81E-01
2689	423	2,92E-01	2,81E-01
2369	444	2,56E-01	2,69E-01
2385	444	2,56E-01	2,69E-01
2385	445	2,15E-01	2,02E-01
2401	445	2,15E-01	2,02E-01
2401	446	2,04E-01	2,13E-01
2417	446	2,04E-01	2,13E-01
2433	447	2,12E-01	2,21E-01
2417	447	2,12E-01	2,21E-01
2433	448	1,81E-01	1,79E-01
2449	448	1,81E-01	1,79E-01
2449	449	1,45E-01	1,49E-01
2465	449	1,45E-01	1,49E-01
2481	450	1,16E-01	1,13E-01
2465	450	1,16E-01	1,13E-01
2481	451	8,36E-02	8,16E-02
2497	451	8,36E-02	8,16E-02
2513	452	5,50E-02	6,11E-02
2497	452	5,50E-02	6,11E-02
2513	453	2,76E-02	3,41E-02
2529	453	2,76E-02	3,41E-02
2370	507	2,58E-01	2,67E-01
2705	507	2,58E-01	2,67E-01
2369	507	2,58E-01	2,67E-01
2706	507	2,58E-01	2,67E-01
2707	508	2,45E-01	2,51E-01
2706	508	2,45E-01	2,51E-01
2370	508	2,45E-01	2,51E-01
2371	508	2,45E-01	2,51E-01
2707	509	2,31E-01	2,36E-01
2708	509	2,31E-01	2,36E-01
2372	509	2,31E-01	2,36E-01
2371	509	2,31E-01	2,36E-01
2372	510	2,14E-01	2,20E-01
2708	510	2,14E-01	2,20E-01
2373	510	2,14E-01	2,20E-01
2709	510	2,14E-01	2,20E-01
2374	511	1,97E-01	2,03E-01
2710	511	1,97E-01	2,03E-01
2373	511	1,97E-01	2,03E-01
2709	511	1,97E-01	2,03E-01
2710	512	1,80E-01	1,86E-01
2374	512	1,80E-01	1,86E-01
2375	512	1,80E-01	1,86E-01
2711	512	1,80E-01	1,86E-01
2375	513	1,63E-01	1,69E-01
2376	513	1,63E-01	1,69E-01
2712	513	1,63E-01	1,69E-01
2711	513	1,63E-01	1,69E-01
2712	514	1,46E-01	1,52E-01
2376	514	1,46E-01	1,52E-01
2377	514	1,46E-01	1,52E-01
2713	514	1,46E-01	1,52E-01
2713	515	1,29E-01	1,35E-01
2378	515	1,29E-01	1,35E-01
2714	515	1,29E-01	1,35E-01
2377	515	1,29E-01	1,35E-01
2379	516	1,12E-01	1,19E-01
2714	516	1,12E-01	1,19E-01
2715	516	1,12E-01	1,19E-01
2378	516	1,12E-01	1,19E-01
2380	517	9,64E-02	1,02E-01
2715	517	9,64E-02	1,02E-01
2716	517	9,64E-02	1,02E-01
2379	517	9,64E-02	1,02E-01
2717	518	8,11E-02	8,70E-02
2716	518	8,11E-02	8,70E-02
2380	518	8,11E-02	8,70E-02
2381	518	8,11E-02	8,70E-02
2382	519	6,70E-02	7,28E-02
2717	519	6,70E-02	7,28E-02
2718	519	6,70E-02	7,28E-02
2381	519	6,70E-02	7,28E-02
2382	520	5,58E-02	6,09E-02
2718	520	5,58E-02	6,09E-02
2719	520	5,58E-02	6,09E-02
2383	520	5,58E-02	6,09E-02
2719	521	4,63E-02	4,97E-02
2720	521	4,63E-02	4,97E-02
2384	521	4,63E-02	4,97E-02
2383	521	4,63E-02	4,97E-02
2384	522	3,99E-02	4,15E-02
2400	522	3,99E-02	4,15E-02
2416	523	4,88E-02	4,89E-02
2400	523	4,88E-02	4,89E-02
2432	524	3,99E-02	4,40E-02
2416	524	3,99E-02	4,40E-02
2448	525	3,69E-02	4,03E-02
2432	525	3,69E-02	4,03E-02
2464	526	4,52E-02	3,98E-02
2448	526	4,52E-02	3,98E-02
2464	527	4,92E-02	4,36E-02
2480	527	4,92E-02	4,36E-02
2496	528	5,32E-02	4,72E-02
2480	528	5,32E-02	4,72E-02
2496	529	5,75E-02	5,37E-02
2512	529	5,75E-02	5,37E-02
2528	530	5,63E-02	6,37E-02
2512	530	5,63E-02	6,37E-02
2544	531	2,88E-02	3,51E-02
2528	531	2,88E-02	3,51E-02
2929	532	1,95E-03	2,19E-03
2930	532	1,95E-03	2,19E-03
2543	532	1,95E-03	2,19E-03
2544	532	1,95E-03	2,19E-03
2543	533	2,05E-03	2,30E-03
2542	533	2,05E-03	2,30E-03
2928	533	2,05E-03	2,30E-03
2929	533	2,05E-03	2,30E-03
2542	534	2,21E-03	2,46E-03
2928	534	2,21E-03	2,46E-03
2541	534	2,21E-03	2,46E-03
2927	534	2,21E-03	2,46E-03
2541	535	2,42E-03	2,67E-03
2927	535	2,42E-03	2,67E-03
2926	535	2,42E-03	2,67E-03
2540	535	2,42E-03	2,67E-03
2926	536	2,67E-03	2,91E-03
2539	536	2,67E-03	2,91E-03
2925	536	2,67E-03	2,91E-03
2540	536	2,67E-03	2,91E-03
2538	537	2,95E-03	3,18E-03
2925	537	2,95E-03	3,18E-03
2924	537	2,95E-03	3,18E-03
2539	537	2,95E-03	3,18E-03
2924	538	3,25E-03	3,47E-03
2538	538	3,25E-03	3,47E-03
2923	538	3,25E-03	3,47E-03
2537	538	3,25E-03	3,47E-03
2536	539	3,57E-03	3,78E-03
2923	539	3,57E-03	3,78E-03
2922	539	3,57E-03	3,78E-03
2537	539	3,57E-03	3,78E-03
2536	540	3,89E-03	4,10E-03
2535	540	3,89E-03	4,10E-03
2922	540	3,89E-03	4,10E-03
2921	540	3,89E-03	4,10E-03
2921	541	4,23E-03	4,43E-03
2920	541	4,23E-03	4,43E-03
2534	541	4,23E-03	4,43E-03
2535	541	4,23E-03	4,43E-03
2534	542	4,57E-03	4,77E-03
2533	542	4,57E-03	4,77E-03
2920	542	4,57E-03	4,77E-03
2919	542	4,57E-03	4,77E-03
2532	543	4,92E-03	5,12E-03
2533	543	4,92E-03	5,12E-03
2919	543	4,92E-03	5,12E-03
2918	543	4,92E-03	5,12E-03
2531	544	5,28E-03	5,47E-03
2532	544	5,28E-03	5,47E-03
2918	544	5,28E-03	5,47E-03
2917	544	5,28E-03	5,47E-03
2530	545	5,64E-03	5,82E-03
2531	545	5,64E-03	5,82E-03
2917	545	5,64E-03	5,82E-03
2916	545	5,64E-03	5,82E-03
2530	546	6,00E-03	6,18E-03
2916	546	6,00E-03	6,18E-03
2915	546	6,00E-03	6,18E-03
2529	546	6,00E-03	6,18E-03
3010	582	1,05E-14	1,36E-14
2994	582	1,05E-14	1,36E-14
2978	583	1,19E-14	1,71E-14
2994	583	1,19E-14	1,71E-14
2978	584	1,15E-14	1,74E-14
2962	584	1,15E-14	1,74E-14
2946	585	1,14E-14	1,33E-14
2962	585	1,14E-14	1,33E-14
2930	586	8,50E-15	1,05E-14
2946	586	8,50E-15	1,05E-14
2979	596	5,16E-15	5,66E-15
2995	596	5,16E-15	5,66E-15
2979	597	6,49E-15	6,98E-15
2963	597	6,49E-15	6,98E-15
2947	598	8,05E-15	7,97E-15
2963	598	8,05E-15	7,97E-15
2947	599	7,71E-15	8,28E-15
2931	599	7,71E-15	8,28E-15
2915	600	1,15E-14	1,25E-14
2931	600	1,15E-14	1,25E-14
3009	616	1,19E-14	1,21E-14
3010	616	1,19E-14	1,21E-14
3008	617	1,73E-14	1,00E-14
3009	617	1,73E-14	1,00E-14
3007	618	1,75E-14	7,69E-15
3008	618	1,75E-14	7,69E-15
3006	619	1,00E-14	9,07E-15
3007	619	1,00E-14	9,07E-15
3006	620	6,99E-15	9,70E-15
3005	620	6,99E-15	9,70E-15
3005	621	9,04E-15	8,73E-15
3004	621	9,04E-15	8,73E-15
3003	622	1,24E-14	1,17E-14
3004	622	1,24E-14	1,17E-14
3002	623	1,18E-14	9,59E-15
3003	623	1,18E-14	9,59E-15
3002	624	9,49E-15	7,96E-15
3001	624	9,49E-15	7,96E-15
3001	625	1,07E-14	8,36E-15
3000	625	1,07E-14	8,36E-15
3000	626	5,48E-15	4,13E-15
2999	626	5,48E-15	4,13E-15
2998	627	7,28E-15	7,30E-15
2999	627	7,28E-15	7,30E-15
2997	628	9,74E-15	9,10E-15
2998	628	9,74E-15	9,10E-15
2996	629	1,19E-14	1,15E-14
2997	629	1,19E-14	1,15E-14
2995	630	1,17E-14	1,17E-14
2996	630	1,17E-14	1,17E-14
545	1130	1,13E-14	1,25E-14
562	1130	1,13E-14	1,25E-14
561	1130	1,13E-14	1,25E-14
546	1130	1,13E-14	1,25E-14
546	1131	1,23E-14	9,59E-15
562	1131	1,23E-14	9,59E-15
563	1131	1,23E-14	9,59E-15
547	1131	1,23E-14	9,59E-15
547	1132	9,29E-15	8,66E-15
563	1132	9,29E-15	8,66E-15
564	1132	9,29E-15	8,66E-15
548	1132	9,29E-15	8,66E-15
565	1133	8,53E-15	1,09E-14
549	1133	8,53E-15	1,09E-14
564	1133	8,53E-15	1,09E-14
548	1133	8,53E-15	1,09E-14
565	1134	7,75E-15	9,12E-15
566	1134	7,75E-15	9,12E-15
549	1134	7,75E-15	9,12E-15
550	1134	7,75E-15	9,12E-15
550	1135	8,98E-15	9,23E-15
566	1135	8,98E-15	9,23E-15
567	1135	8,98E-15	9,23E-15
551	1135	8,98E-15	9,23E-15
567	1136	1,13E-14	1,07E-14
568	1136	1,13E-14	1,07E-14
552	1136	1,13E-14	1,07E-14
551	1136	1,13E-14	1,07E-14
552	1137	9,06E-15	7,74E-15
569	1137	9,06E-15	7,74E-15
568	1137	9,06E-15	7,74E-15
553	1137	9,06E-15	7,74E-15
554	1138	9,41E-15	8,39E-15
569	1138	9,41E-15	8,39E-15
570	1138	9,41E-15	8,39E-15
553	1138	9,41E-15	8,39E-15
555	1139	1,16E-14	1,11E-14
554	1139	1,16E-14	1,11E-14
570	1139	1,16E-14	1,11E-14
571	1139	1,16E-14	1,11E-14
571	1140	1,26E-14	1,24E-14
556	1140	1,26E-14	1,24E-14
572	1140	1,26E-14	1,24E-14
555	1140	1,26E-14	1,24E-14
556	1141	1,20E-14	1,30E-14
557	1141	1,20E-14	1,30E-14
572	1141	1,20E-14	1,30E-14
573	1141	1,20E-14	1,30E-14
557	1142	9,48E-15	1,09E-14
573	1142	9,48E-15	1,09E-14
558	1142	9,48E-15	1,09E-14
574	1142	9,48E-15	1,09E-14
559	1143	9,84E-15	1,03E-14
558	1143	9,84E-15	1,03E-14
575	1143	9,84E-15	1,03E-14
574	1143	9,84E-15	1,03E-14
576	1144	1,42E-14	1,44E-14
575	1144	1,42E-14	1,44E-14
560	1144	1,42E-14	1,44E-14
559	1144	1,42E-14	1,44E-14
561	1145	1,16E-14	1,11E-14
562	1145	1,16E-14	1,11E-14
577	1145	1,16E-14	1,11E-14
578	1145	1,16E-14	1,11E-14
563	1146	1,33E-14	1,20E-14
578	1146	1,33E-14	1,20E-14
579	1146	1,33E-14	1,20E-14
562	1146	1,33E-14	1,20E-14
564	1147	1,08E-14	1,06E-14
580	1147	1,08E-14	1,06E-14
579	1147	1,08E-14	1,06E-14
563	1147	1,08E-14	1,06E-14
581	1148	1,17E-14	1,24E-14
564	1148	1,17E-14	1,24E-14
580	1148	1,17E-14	1,24E-14
565	1148	1,17E-14	1,24E-14
566	1149	1,01E-14	1,05E-14
565	1149	1,01E-14	1,05E-14
581	1149	1,01E-14	1,05E-14
582	1149	1,01E-14	1,05E-14
567	1150	1,16E-14	1,07E-14
566	1150	1,16E-14	1,07E-14
583	1150	1,16E-14	1,07E-14
582	1150	1,16E-14	1,07E-14
568	1151	1,23E-14	1,17E-14
567	1151	1,23E-14	1,17E-14
583	1151	1,23E-14	1,17E-14
584	1151	1,23E-14	1,17E-14
584	1152	6,98E-15	7,19E-15
568	1152	6,98E-15	7,19E-15
585	1152	6,98E-15	7,19E-15
569	1152	6,98E-15	7,19E-15
570	1153	4,91E-15	5,94E-15
586	1153	4,91E-15	5,94E-15
569	1153	4,91E-15	5,94E-15
585	1153	4,91E-15	5,94E-15
571	1154	6,10E-15	6,79E-15
586	1154	6,10E-15	6,79E-15
587	1154	6,10E-15	6,79E-15
570	1154	6,10E-15	6,79E-15
588	1155	1,13E-14	1,09E-14
571	1155	1,13E-14	1,09E-14
587	1155	1,13E-14	1,09E-14
572	1155	1,13E-14	1,09E-14
572	1156	1,52E-14	1,55E-14
589	1156	1,52E-14	1,55E-14
588	1156	1,52E-14	1,55E-14
573	1156	1,52E-14	1,55E-14
590	1157	9,62E-15	1,05E-14
574	1157	9,62E-15	1,05E-14
573	1157	9,62E-15	1,05E-14
589	1157	9,62E-15	1,05E-14
574	1158	1,05E-14	1,05E-14
591	1158	1,05E-14	1,05E-14
575	1158	1,05E-14	1,05E-14
590	1158	1,05E-14	1,05E-14
591	1159	1,68E-14	1,68E-14
592	1159	1,68E-14	1,68E-14
575	1159	1,68E-14	1,68E-14
576	1159	1,68E-14	1,68E-14
578	1160	9,54E-15	1,04E-14
577	1160	9,54E-15	1,04E-14
593	1160	9,54E-15	1,04E-14
594	1160	9,54E-15	1,04E-14
594	1161	1,24E-14	1,38E-14
578	1161	1,24E-14	1,38E-14
595	1161	1,24E-14	1,38E-14
579	1161	1,24E-14	1,38E-14
596	1162	1,27E-14	1,38E-14
579	1162	1,27E-14	1,38E-14
580	1162	1,27E-14	1,38E-14
595	1162	1,27E-14	1,38E-14
581	1163	1,55E-14	1,60E-14
597	1163	1,55E-14	1,60E-14
596	1163	1,55E-14	1,60E-14
580	1163	1,55E-14	1,60E-14
582	1164	1,34E-14	1,13E-14
597	1164	1,34E-14	1,13E-14
598	1164	1,34E-14	1,13E-14
581	1164	1,34E-14	1,13E-14
583	1165	8,24E-15	6,21E-15
582	1165	8,24E-15	6,21E-15
599	1165	8,24E-15	6,21E-15
598	1165	8,24E-15	6,21E-15
600	1166	6,95E-15	6,65E-15
584	1166	6,95E-15	6,65E-15
599	1166	6,95E-15	6,65E-15
583	1166	6,95E-15	6,65E-15
600	1167	6,98E-15	6,51E-15
585	1167	6,98E-15	6,51E-15
601	1167	6,98E-15	6,51E-15
584	1167	6,98E-15	6,51E-15
585	1168	5,03E-15	5,85E-15
601	1168	5,03E-15	5,85E-15
602	1168	5,03E-15	5,85E-15
586	1168	5,03E-15	5,85E-15
586	1169	4,49E-15	5,77E-15
603	1169	4,49E-15	5,77E-15
602	1169	4,49E-15	5,77E-15
587	1169	4,49E-15	5,77E-15
588	1170	7,81E-15	7,91E-15
603	1170	7,81E-15	7,91E-15
604	1170	7,81E-15	7,91E-15
587	1170	7,81E-15	7,91E-15
589	1171	1,14E-14	1,13E-14
605	1171	1,14E-14	1,13E-14
604	1171	1,14E-14	1,13E-14
588	1171	1,14E-14	1,13E-14
605	1172	9,21E-15	9,18E-15
606	1172	9,21E-15	9,18E-15
590	1172	9,21E-15	9,18E-15
589	1172	9,21E-15	9,18E-15
590	1173	1,28E-14	1,26E-14
606	1173	1,28E-14	1,26E-14
591	1173	1,28E-14	1,26E-14
607	1173	1,28E-14	1,26E-14
592	1174	1,67E-14	1,70E-14
608	1174	1,67E-14	1,70E-14
607	1174	1,67E-14	1,70E-14
591	1174	1,67E-14	1,70E-14
610	1175	7,81E-15	9,31E-15
594	1175	7,81E-15	9,31E-15
609	1175	7,81E-15	9,31E-15
593	1175	7,81E-15	9,31E-15
594	1176	9,85E-15	1,08E-14
611	1176	9,85E-15	1,08E-14
595	1176	9,85E-15	1,08E-14
610	1176	9,85E-15	1,08E-14
596	1177	1,20E-14	1,08E-14
595	1177	1,20E-14	1,08E-14
611	1177	1,20E-14	1,08E-14
612	1177	1,20E-14	1,08E-14
613	1178	1,21E-14	1,22E-14
596	1178	1,21E-14	1,22E-14
612	1178	1,21E-14	1,22E-14
597	1178	1,21E-14	1,22E-14
597	1179	1,33E-14	1,28E-14
613	1179	1,33E-14	1,28E-14
614	1179	1,33E-14	1,28E-14
598	1179	1,33E-14	1,28E-14
615	1180	1,11E-14	1,02E-14
614	1180	1,11E-14	1,02E-14
599	1180	1,11E-14	1,02E-14
598	1180	1,11E-14	1,02E-14
616	1181	8,23E-15	8,71E-15
615	1181	8,23E-15	8,71E-15
600	1181	8,23E-15	8,71E-15
599	1181	8,23E-15	8,71E-15
616	1182	8,49E-15	8,73E-15
601	1182	8,49E-15	8,73E-15
617	1182	8,49E-15	8,73E-15
600	1182	8,49E-15	8,73E-15
601	1183	8,74E-15	9,02E-15
602	1183	8,74E-15	9,02E-15
618	1183	8,74E-15	9,02E-15
617	1183	8,74E-15	9,02E-15
602	1184	1,09E-14	1,03E-14
603	1184	1,09E-14	1,03E-14
619	1184	1,09E-14	1,03E-14
618	1184	1,09E-14	1,03E-14
604	1185	8,42E-15	7,39E-15
619	1185	8,42E-15	7,39E-15
620	1185	8,42E-15	7,39E-15
603	1185	8,42E-15	7,39E-15
621	1186	6,38E-15	6,47E-15
605	1186	6,38E-15	6,47E-15
620	1186	6,38E-15	6,47E-15
604	1186	6,38E-15	6,47E-15
606	1187	7,96E-15	8,70E-15
622	1187	7,96E-15	8,70E-15
621	1187	7,96E-15	8,70E-15
605	1187	7,96E-15	8,70E-15
607	1188	1,31E-14	1,34E-14
606	1188	1,31E-14	1,34E-14
622	1188	1,31E-14	1,34E-14
623	1188	1,31E-14	1,34E-14
607	1189	1,78E-14	1,81E-14
623	1189	1,78E-14	1,81E-14
608	1189	1,78E-14	1,81E-14
624	1189	1,78E-14	1,81E-14
625	1190	1,26E-14	1,20E-14
626	1190	1,26E-14	1,20E-14
610	1190	1,26E-14	1,20E-14
609	1190	1,26E-14	1,20E-14
611	1191	1,51E-14	1,21E-14
626	1191	1,51E-14	1,21E-14
627	1191	1,51E-14	1,21E-14
610	1191	1,51E-14	1,21E-14
611	1192	1,23E-14	8,41E-15
627	1192	1,23E-14	8,41E-15
628	1192	1,23E-14	8,41E-15
612	1192	1,23E-14	8,41E-15
628	1193	6,06E-15	6,19E-15
629	1193	6,06E-15	6,19E-15
613	1193	6,06E-15	6,19E-15
612	1193	6,06E-15	6,19E-15
613	1194	1,22E-14	1,23E-14
629	1194	1,22E-14	1,23E-14
630	1194	1,22E-14	1,23E-14
614	1194	1,22E-14	1,23E-14
614	1195	1,52E-14	1,45E-14
615	1195	1,52E-14	1,45E-14
630	1195	1,52E-14	1,45E-14
631	1195	1,52E-14	1,45E-14
632	1196	1,00E-14	1,05E-14
616	1196	1,00E-14	1,05E-14
615	1196	1,00E-14	1,05E-14
631	1196	1,00E-14	1,05E-14
633	1197	9,47E-15	1,03E-14
616	1197	9,47E-15	1,03E-14
617	1197	9,47E-15	1,03E-14
632	1197	9,47E-15	1,03E-14
633	1198	9,99E-15	1,05E-14
618	1198	9,99E-15	1,05E-14
617	1198	9,99E-15	1,05E-14
634	1198	9,99E-15	1,05E-14
618	1199	1,08E-14	9,92E-15
634	1199	1,08E-14	9,92E-15
619	1199	1,08E-14	9,92E-15
635	1199	1,08E-14	9,92E-15
619	1200	1,19E-14	1,06E-14
620	1200	1,19E-14	1,06E-14
636	1200	1,19E-14	1,06E-14
635	1200	1,19E-14	1,06E-14
637	1201	1,20E-14	1,19E-14
621	1201	1,20E-14	1,19E-14
620	1201	1,20E-14	1,19E-14
636	1201	1,20E-14	1,19E-14
638	1202	8,73E-15	9,65E-15
637	1202	8,73E-15	9,65E-15
622	1202	8,73E-15	9,65E-15
621	1202	8,73E-15	9,65E-15
639	1203	7,44E-15	8,06E-15
622	1203	7,44E-15	8,06E-15
638	1203	7,44E-15	8,06E-15
623	1203	7,44E-15	8,06E-15
624	1204	1,23E-14	1,29E-14
623	1204	1,23E-14	1,29E-14
639	1204	1,23E-14	1,29E-14
640	1204	1,23E-14	1,29E-14
1090	1511	1,40E-02	1,34E-02
1091	1511	1,40E-02	1,34E-02
1075	1511	1,40E-02	1,34E-02
1074	1511	1,40E-02	1,34E-02
1092	1512	1,78E-02	1,43E-02
1091	1512	1,78E-02	1,43E-02
1075	1512	1,78E-02	1,43E-02
1076	1512	1,78E-02	1,43E-02
1076	1513	2,03E-02	1,73E-02
1092	1513	2,03E-02	1,73E-02
1093	1513	2,03E-02	1,73E-02
1077	1513	2,03E-02	1,73E-02
1078	1514	2,15E-02	1,89E-02
1094	1514	2,15E-02	1,89E-02
1077	1514	2,15E-02	1,89E-02
1093	1514	2,15E-02	1,89E-02
1078	1515	2,15E-02	1,91E-02
1094	1515	2,15E-02	1,91E-02
1095	1515	2,15E-02	1,91E-02
1079	1515	2,15E-02	1,91E-02
1080	1516	2,11E-02	1,89E-02
1096	1516	2,11E-02	1,89E-02
1095	1516	2,11E-02	1,89E-02
1079	1516	2,11E-02	1,89E-02
1096	1517	2,03E-02	1,82E-02
1081	1517	2,03E-02	1,82E-02
1097	1517	2,03E-02	1,82E-02
1080	1517	2,03E-02	1,82E-02
1098	1518	1,93E-02	1,74E-02
1082	1518	1,93E-02	1,74E-02
1081	1518	1,93E-02	1,74E-02
1097	1518	1,93E-02	1,74E-02
1098	1519	1,84E-02	1,66E-02
1099	1519	1,84E-02	1,66E-02
1083	1519	1,84E-02	1,66E-02
1082	1519	1,84E-02	1,66E-02
1084	1520	1,74E-02	1,58E-02
1083	1520	1,74E-02	1,58E-02
1099	1520	1,74E-02	1,58E-02
1100	1520	1,74E-02	1,58E-02
1084	1521	1,64E-02	1,51E-02
1085	1521	1,64E-02	1,51E-02
1101	1521	1,64E-02	1,51E-02
1100	1521	1,64E-02	1,51E-02
1101	1522	1,55E-02	1,45E-02
1086	1522	1,55E-02	1,45E-02
1102	1522	1,55E-02	1,45E-02
1085	1522	1,55E-02	1,45E-02
1086	1523	1,47E-02	1,40E-02
1103	1523	1,47E-02	1,40E-02
1087	1523	1,47E-02	1,40E-02
1102	1523	1,47E-02	1,40E-02
1087	1524	1,40E-02	1,38E-02
1104	1524	1,40E-02	1,38E-02
1103	1524	1,40E-02	1,38E-02
1088	1524	1,40E-02	1,38E-02
1089	1525	1,28E-02	1,43E-02
1105	1525	1,28E-02	1,43E-02
1104	1525	1,28E-02	1,43E-02
1088	1525	1,28E-02	1,43E-02
1091	1526	2,55E-02	2,45E-02
1107	1526	2,55E-02	2,45E-02
1106	1526	2,55E-02	2,45E-02
1090	1526	2,55E-02	2,45E-02
1091	1527	3,23E-02	2,77E-02
1092	1527	3,23E-02	2,77E-02
1108	1527	3,23E-02	2,77E-02
1107	1527	3,23E-02	2,77E-02
1092	1528	3,85E-02	3,38E-02
1108	1528	3,85E-02	3,38E-02
1109	1528	3,85E-02	3,38E-02
1093	1528	3,85E-02	3,38E-02
1110	1529	4,02E-02	3,59E-02
1093	1529	4,02E-02	3,59E-02
1109	1529	4,02E-02	3,59E-02
1094	1529	4,02E-02	3,59E-02
1110	1530	4,00E-02	3,60E-02
1111	1530	4,00E-02	3,60E-02
1095	1530	4,00E-02	3,60E-02
1094	1530	4,00E-02	3,60E-02
1111	1531	3,88E-02	3,50E-02
1112	1531	3,88E-02	3,50E-02
1095	1531	3,88E-02	3,50E-02
1096	1531	3,88E-02	3,50E-02
1096	1532	3,70E-02	3,35E-02
1097	1532	3,70E-02	3,35E-02
1113	1532	3,70E-02	3,35E-02
1112	1532	3,70E-02	3,35E-02
1097	1533	3,52E-02	3,19E-02
1114	1533	3,52E-02	3,19E-02
1098	1533	3,52E-02	3,19E-02
1113	1533	3,52E-02	3,19E-02
1114	1534	3,33E-02	3,03E-02
1098	1534	3,33E-02	3,03E-02
1099	1534	3,33E-02	3,03E-02
1115	1534	3,33E-02	3,03E-02
1116	1535	3,14E-02	2,87E-02
1115	1535	3,14E-02	2,87E-02
1099	1535	3,14E-02	2,87E-02
1100	1535	3,14E-02	2,87E-02
1116	1536	2,97E-02	2,73E-02
1117	1536	2,97E-02	2,73E-02
1100	1536	2,97E-02	2,73E-02
1101	1536	2,97E-02	2,73E-02
1117	1537	2,81E-02	2,62E-02
1101	1537	2,81E-02	2,62E-02
1118	1537	2,81E-02	2,62E-02
1102	1537	2,81E-02	2,62E-02
1119	1538	2,66E-02	2,54E-02
1102	1538	2,66E-02	2,54E-02
1118	1538	2,66E-02	2,54E-02
1103	1538	2,66E-02	2,54E-02
1103	1539	2,51E-02	2,52E-02
1120	1539	2,51E-02	2,52E-02
1104	1539	2,51E-02	2,52E-02
1119	1539	2,51E-02	2,52E-02
1105	1540	2,39E-02	2,59E-02
1121	1540	2,39E-02	2,59E-02
1120	1540	2,39E-02	2,59E-02
1104	1540	2,39E-02	2,59E-02
1123	1541	3,34E-02	3,30E-02
1122	1541	3,34E-02	3,30E-02
1107	1541	3,34E-02	3,30E-02
1106	1541	3,34E-02	3,30E-02
1108	1542	3,61E-02	3,54E-02
1123	1542	3,61E-02	3,54E-02
1107	1542	3,61E-02	3,54E-02
1124	1542	3,61E-02	3,54E-02
1109	1543	4,16E-02	3,99E-02
1124	1543	4,16E-02	3,99E-02
1125	1543	4,16E-02	3,99E-02
1108	1543	4,16E-02	3,99E-02
1125	1544	4,23E-02	4,03E-02
1110	1544	4,23E-02	4,03E-02
1126	1544	4,23E-02	4,03E-02
1109	1544	4,23E-02	4,03E-02
1111	1545	4,10E-02	3,89E-02
1126	1545	4,10E-02	3,89E-02
1127	1545	4,10E-02	3,89E-02
1110	1545	4,10E-02	3,89E-02
1112	1546	3,87E-02	3,68E-02
1128	1546	3,87E-02	3,68E-02
1111	1546	3,87E-02	3,68E-02
1127	1546	3,87E-02	3,68E-02
1129	1547	3,64E-02	3,45E-02
1112	1547	3,64E-02	3,45E-02
1113	1547	3,64E-02	3,45E-02
1128	1547	3,64E-02	3,45E-02
1130	1548	3,40E-02	3,23E-02
1113	1548	3,40E-02	3,23E-02
1129	1548	3,40E-02	3,23E-02
1114	1548	3,40E-02	3,23E-02
1114	1549	3,18E-02	3,02E-02
1130	1549	3,18E-02	3,02E-02
1115	1549	3,18E-02	3,02E-02
1131	1549	3,18E-02	3,02E-02
1115	1550	2,97E-02	2,82E-02
1116	1550	2,97E-02	2,82E-02
1132	1550	2,97E-02	2,82E-02
1131	1550	2,97E-02	2,82E-02
1117	1551	2,78E-02	2,66E-02
1132	1551	2,78E-02	2,66E-02
1133	1551	2,78E-02	2,66E-02
1116	1551	2,78E-02	2,66E-02
1118	1552	2,62E-02	2,51E-02
1117	1552	2,62E-02	2,51E-02
1134	1552	2,62E-02	2,51E-02
1133	1552	2,62E-02	2,51E-02
1118	1553	2,46E-02	2,42E-02
1119	1553	2,46E-02	2,42E-02
1135	1553	2,46E-02	2,42E-02
1134	1553	2,46E-02	2,42E-02
1119	1554	2,35E-02	2,37E-02
1120	1554	2,35E-02	2,37E-02
1135	1554	2,35E-02	2,37E-02
1136	1554	2,35E-02	2,37E-02
1120	1555	2,35E-02	2,29E-02
1136	1555	2,35E-02	2,29E-02
1121	1555	2,35E-02	2,29E-02
1137	1555	2,35E-02	2,29E-02
1123	1556	4,47E-02	4,48E-02
1122	1556	4,47E-02	4,48E-02
1139	1556	4,47E-02	4,48E-02
1138	1556	4,47E-02	4,48E-02
1139	1557	4,18E-02	4,31E-02
1140	1557	4,18E-02	4,31E-02
1123	1557	4,18E-02	4,31E-02
1124	1557	4,18E-02	4,31E-02
1124	1558	4,36E-02	4,43E-02
1125	1558	4,36E-02	4,43E-02
1140	1558	4,36E-02	4,43E-02
1141	1558	4,36E-02	4,43E-02
1141	1559	4,32E-02	4,32E-02
1142	1559	4,32E-02	4,32E-02
1125	1559	4,32E-02	4,32E-02
1126	1559	4,32E-02	4,32E-02
1142	1560	4,08E-02	4,07E-02
1143	1560	4,08E-02	4,07E-02
1126	1560	4,08E-02	4,07E-02
1127	1560	4,08E-02	4,07E-02
1127	1561	3,81E-02	3,80E-02
1143	1561	3,81E-02	3,80E-02
1144	1561	3,81E-02	3,80E-02
1128	1561	3,81E-02	3,80E-02
1144	1562	3,53E-02	3,52E-02
1129	1562	3,53E-02	3,52E-02
1145	1562	3,53E-02	3,52E-02
1128	1562	3,53E-02	3,52E-02
1130	1563	3,27E-02	3,25E-02
1146	1563	3,27E-02	3,25E-02
1145	1563	3,27E-02	3,25E-02
1129	1563	3,27E-02	3,25E-02
1130	1564	3,03E-02	3,01E-02
1147	1564	3,03E-02	3,01E-02
1146	1564	3,03E-02	3,01E-02
1131	1564	3,03E-02	3,01E-02
1147	1565	2,80E-02	2,79E-02
1132	1565	2,80E-02	2,79E-02
1148	1565	2,80E-02	2,79E-02
1131	1565	2,80E-02	2,79E-02
1149	1566	2,60E-02	2,59E-02
1132	1566	2,60E-02	2,59E-02
1133	1566	2,60E-02	2,59E-02
1148	1566	2,60E-02	2,59E-02
1149	1567	2,43E-02	2,42E-02
1134	1567	2,43E-02	2,42E-02
1150	1567	2,43E-02	2,42E-02
1133	1567	2,43E-02	2,42E-02
1135	1568	2,30E-02	2,29E-02
1150	1568	2,30E-02	2,29E-02
1134	1568	2,30E-02	2,29E-02
1151	1568	2,30E-02	2,29E-02
1151	1569	2,23E-02	2,15E-02
1152	1569	2,23E-02	2,15E-02
1136	1569	2,23E-02	2,15E-02
1135	1569	2,23E-02	2,15E-02
1153	1570	2,21E-02	2,02E-02
1152	1570	2,21E-02	2,02E-02
1137	1570	2,21E-02	2,02E-02
1136	1570	2,21E-02	2,02E-02
1139	1571	5,59E-02	5,73E-02
1154	1571	5,59E-02	5,73E-02
1155	1571	5,59E-02	5,73E-02
1138	1571	5,59E-02	5,73E-02
1140	1572	4,90E-02	5,05E-02
1155	1572	4,90E-02	5,05E-02
1156	1572	4,90E-02	5,05E-02
1139	1572	4,90E-02	5,05E-02
1141	1573	4,53E-02	4,73E-02
1156	1573	4,53E-02	4,73E-02
1140	1573	4,53E-02	4,73E-02
1157	1573	4,53E-02	4,73E-02
1158	1574	4,23E-02	4,43E-02
1142	1574	4,23E-02	4,43E-02
1157	1574	4,23E-02	4,43E-02
1141	1574	4,23E-02	4,43E-02
1142	1575	3,95E-02	4,13E-02
1158	1575	3,95E-02	4,13E-02
1159	1575	3,95E-02	4,13E-02
1143	1575	3,95E-02	4,13E-02
1143	1576	3,66E-02	3,82E-02
1144	1576	3,66E-02	3,82E-02
1160	1576	3,66E-02	3,82E-02
1159	1576	3,66E-02	3,82E-02
1160	1577	3,37E-02	3,53E-02
1161	1577	3,37E-02	3,53E-02
1145	1577	3,37E-02	3,53E-02
1144	1577	3,37E-02	3,53E-02
1162	1578	3,10E-02	3,25E-02
1161	1578	3,10E-02	3,25E-02
1145	1578	3,10E-02	3,25E-02
1146	1578	3,10E-02	3,25E-02
1163	1579	2,85E-02	2,99E-02
1162	1579	2,85E-02	2,99E-02
1147	1579	2,85E-02	2,99E-02
1146	1579	2,85E-02	2,99E-02
1147	1580	2,62E-02	2,75E-02
1148	1580	2,62E-02	2,75E-02
1163	1580	2,62E-02	2,75E-02
1164	1580	2,62E-02	2,75E-02
1148	1581	2,41E-02	2,53E-02
1165	1581	2,41E-02	2,53E-02
1164	1581	2,41E-02	2,53E-02
1149	1581	2,41E-02	2,53E-02
1165	1582	2,24E-02	2,34E-02
1149	1582	2,24E-02	2,34E-02
1150	1582	2,24E-02	2,34E-02
1166	1582	2,24E-02	2,34E-02
1167	1583	2,11E-02	2,17E-02
1151	1583	2,11E-02	2,17E-02
1166	1583	2,11E-02	2,17E-02
1150	1583	2,11E-02	2,17E-02
1151	1584	2,06E-02	1,98E-02
1152	1584	2,06E-02	1,98E-02
1168	1584	2,06E-02	1,98E-02
1167	1584	2,06E-02	1,98E-02
1168	1585	2,03E-02	1,85E-02
1153	1585	2,03E-02	1,85E-02
1152	1585	2,03E-02	1,85E-02
1169	1585	2,03E-02	1,85E-02
1154	1586	6,79E-02	6,83E-02
1170	1586	6,79E-02	6,83E-02
1171	1586	6,79E-02	6,83E-02
1155	1586	6,79E-02	6,83E-02
1156	1587	5,39E-02	5,64E-02
1155	1587	5,39E-02	5,64E-02
1171	1587	5,39E-02	5,64E-02
1172	1587	5,39E-02	5,64E-02
1156	1588	4,50E-02	4,86E-02
1172	1588	4,50E-02	4,86E-02
1173	1588	4,50E-02	4,86E-02
1157	1588	4,50E-02	4,86E-02
1157	1589	4,05E-02	4,43E-02
1173	1589	4,05E-02	4,43E-02
1174	1589	4,05E-02	4,43E-02
1158	1589	4,05E-02	4,43E-02
1175	1590	3,74E-02	4,10E-02
1158	1590	3,74E-02	4,10E-02
1174	1590	3,74E-02	4,10E-02
1159	1590	3,74E-02	4,10E-02
1160	1591	3,44E-02	3,79E-02
1175	1591	3,44E-02	3,79E-02
1159	1591	3,44E-02	3,79E-02
1176	1591	3,44E-02	3,79E-02
1161	1592	3,17E-02	3,51E-02
1160	1592	3,17E-02	3,51E-02
1176	1592	3,17E-02	3,51E-02
1177	1592	3,17E-02	3,51E-02
1162	1593	2,91E-02	3,23E-02
1177	1593	2,91E-02	3,23E-02
1178	1593	2,91E-02	3,23E-02
1161	1593	2,91E-02	3,23E-02
1178	1594	2,66E-02	2,97E-02
1179	1594	2,66E-02	2,97E-02
1163	1594	2,66E-02	2,97E-02
1162	1594	2,66E-02	2,97E-02
1163	1595	2,42E-02	2,72E-02
1180	1595	2,42E-02	2,72E-02
1164	1595	2,42E-02	2,72E-02
1179	1595	2,42E-02	2,72E-02
1181	1596	2,21E-02	2,48E-02
1164	1596	2,21E-02	2,48E-02
1165	1596	2,21E-02	2,48E-02
1180	1596	2,21E-02	2,48E-02
1181	1597	2,04E-02	2,26E-02
1166	1597	2,04E-02	2,26E-02
1182	1597	2,04E-02	2,26E-02
1165	1597	2,04E-02	2,26E-02
1167	1598	1,90E-02	2,07E-02
1183	1598	1,90E-02	2,07E-02
1166	1598	1,90E-02	2,07E-02
1182	1598	1,90E-02	2,07E-02
1167	1599	1,82E-02	1,90E-02
1168	1599	1,82E-02	1,90E-02
1184	1599	1,82E-02	1,90E-02
1183	1599	1,82E-02	1,90E-02
1168	1600	1,83E-02	1,73E-02
1169	1600	1,83E-02	1,73E-02
1185	1600	1,83E-02	1,73E-02
1184	1600	1,83E-02	1,73E-02
1186	1601	7,44E-02	7,92E-02
1170	1601	7,44E-02	7,92E-02
1171	1601	7,44E-02	7,92E-02
1187	1601	7,44E-02	7,92E-02
1172	1602	5,32E-02	5,89E-02
1171	1602	5,32E-02	5,89E-02
1187	1602	5,32E-02	5,89E-02
1188	1602	5,32E-02	5,89E-02
1172	1603	4,35E-02	4,92E-02
1173	1603	4,35E-02	4,92E-02
1189	1603	4,35E-02	4,92E-02
1188	1603	4,35E-02	4,92E-02
1189	1604	3,86E-02	4,41E-02
1174	1604	3,86E-02	4,41E-02
1173	1604	3,86E-02	4,41E-02
1190	1604	3,86E-02	4,41E-02
1174	1605	3,50E-02	4,04E-02
1191	1605	3,50E-02	4,04E-02
1190	1605	3,50E-02	4,04E-02
1175	1605	3,50E-02	4,04E-02
1192	1606	3,22E-02	3,75E-02
1191	1606	3,22E-02	3,75E-02
1175	1606	3,22E-02	3,75E-02
1176	1606	3,22E-02	3,75E-02
1192	1607	2,95E-02	3,47E-02
1193	1607	2,95E-02	3,47E-02
1176	1607	2,95E-02	3,47E-02
1177	1607	2,95E-02	3,47E-02
1177	1608	2,69E-02	3,20E-02
1194	1608	2,69E-02	3,20E-02
1193	1608	2,69E-02	3,20E-02
1178	1608	2,69E-02	3,20E-02
1194	1609	2,45E-02	2,94E-02
1179	1609	2,45E-02	2,94E-02
1195	1609	2,45E-02	2,94E-02
1178	1609	2,45E-02	2,94E-02
1179	1610	2,21E-02	2,68E-02
1196	1610	2,21E-02	2,68E-02
1195	1610	2,21E-02	2,68E-02
1180	1610	2,21E-02	2,68E-02
1181	1611	2,00E-02	2,43E-02
1196	1611	2,00E-02	2,43E-02
1197	1611	2,00E-02	2,43E-02
1180	1611	2,00E-02	2,43E-02
1197	1612	1,82E-02	2,19E-02
1182	1612	1,82E-02	2,19E-02
1198	1612	1,82E-02	2,19E-02
1181	1612	1,82E-02	2,19E-02
1182	1613	1,68E-02	1,98E-02
1183	1613	1,68E-02	1,98E-02
1199	1613	1,68E-02	1,98E-02
1198	1613	1,68E-02	1,98E-02
1183	1614	1,57E-02	1,81E-02
1184	1614	1,57E-02	1,81E-02
1200	1614	1,57E-02	1,81E-02
1199	1614	1,57E-02	1,81E-02
1185	1615	1,52E-02	1,69E-02
1184	1615	1,52E-02	1,69E-02
1201	1615	1,52E-02	1,69E-02
1200	1615	1,52E-02	1,69E-02
1186	1616	7,96E-02	8,13E-02
1202	1616	7,96E-02	8,13E-02
1203	1616	7,96E-02	8,13E-02
1187	1616	7,96E-02	8,13E-02
1203	1617	7,26E-02	7,28E-02
1204	1617	7,26E-02	7,28E-02
1187	1617	7,26E-02	7,28E-02
1188	1617	7,26E-02	7,28E-02
1189	1618	6,82E-02	6,84E-02
1188	1618	6,82E-02	6,84E-02
1204	1618	6,82E-02	6,84E-02
1205	1618	6,82E-02	6,84E-02
1190	1619	6,39E-02	6,45E-02
1206	1619	6,39E-02	6,45E-02
1189	1619	6,39E-02	6,45E-02
1205	1619	6,39E-02	6,45E-02
1191	1620	5,98E-02	6,04E-02
1207	1620	5,98E-02	6,04E-02
1190	1620	5,98E-02	6,04E-02
1206	1620	5,98E-02	6,04E-02
1207	1621	5,55E-02	5,63E-02
1191	1621	5,55E-02	5,63E-02
1208	1621	5,55E-02	5,63E-02
1192	1621	5,55E-02	5,63E-02
1192	1622	5,12E-02	5,20E-02
1208	1622	5,12E-02	5,20E-02
1209	1622	5,12E-02	5,20E-02
1193	1622	5,12E-02	5,20E-02
1209	1623	4,68E-02	4,76E-02
1210	1623	4,68E-02	4,76E-02
1194	1623	4,68E-02	4,76E-02
1193	1623	4,68E-02	4,76E-02
1210	1624	4,25E-02	4,33E-02
1195	1624	4,25E-02	4,33E-02
1211	1624	4,25E-02	4,33E-02
1194	1624	4,25E-02	4,33E-02
1196	1625	3,83E-02	3,91E-02
1212	1625	3,83E-02	3,91E-02
1211	1625	3,83E-02	3,91E-02
1195	1625	3,83E-02	3,91E-02
1212	1626	3,43E-02	3,50E-02
1213	1626	3,43E-02	3,50E-02
1197	1626	3,43E-02	3,50E-02
1196	1626	3,43E-02	3,50E-02
1198	1627	3,06E-02	3,12E-02
1213	1627	3,06E-02	3,12E-02
1197	1627	3,06E-02	3,12E-02
1214	1627	3,06E-02	3,12E-02
1214	1628	2,74E-02	2,78E-02
1215	1628	2,74E-02	2,78E-02
1198	1628	2,74E-02	2,78E-02
1199	1628	2,74E-02	2,78E-02
1215	1629	2,47E-02	2,54E-02
1199	1629	2,47E-02	2,54E-02
1216	1629	2,47E-02	2,54E-02
1200	1629	2,47E-02	2,54E-02
1200	1630	2,18E-02	2,46E-02
1216	1630	2,18E-02	2,46E-02
1217	1630	2,18E-02	2,46E-02
1201	1630	2,18E-02	2,46E-02
1203	1631	9,02E-02	8,69E-02
1218	1631	9,02E-02	8,69E-02
1202	1631	9,02E-02	8,69E-02
1219	1631	9,02E-02	8,69E-02
1219	1632	9,64E-02	9,24E-02
1203	1632	9,64E-02	9,24E-02
1220	1632	9,64E-02	9,24E-02
1204	1632	9,64E-02	9,24E-02
1205	1633	9,59E-02	9,20E-02
1204	1633	9,59E-02	9,20E-02
1220	1633	9,59E-02	9,20E-02
1221	1633	9,59E-02	9,20E-02
1221	1634	9,18E-02	8,80E-02
1222	1634	9,18E-02	8,80E-02
1205	1634	9,18E-02	8,80E-02
1206	1634	9,18E-02	8,80E-02
1223	1635	8,61E-02	8,25E-02
1222	1635	8,61E-02	8,25E-02
1207	1635	8,61E-02	8,25E-02
1206	1635	8,61E-02	8,25E-02
1223	1636	7,98E-02	7,64E-02
1208	1636	7,98E-02	7,64E-02
1224	1636	7,98E-02	7,64E-02
1207	1636	7,98E-02	7,64E-02
1224	1637	7,33E-02	7,00E-02
1209	1637	7,33E-02	7,00E-02
1225	1637	7,33E-02	7,00E-02
1208	1637	7,33E-02	7,00E-02
1209	1638	6,68E-02	6,36E-02
1225	1638	6,68E-02	6,36E-02
1210	1638	6,68E-02	6,36E-02
1226	1638	6,68E-02	6,36E-02
1227	1639	6,04E-02	5,73E-02
1226	1639	6,04E-02	5,73E-02
1210	1639	6,04E-02	5,73E-02
1211	1639	6,04E-02	5,73E-02
1211	1640	5,41E-02	5,11E-02
1212	1640	5,41E-02	5,11E-02
1228	1640	5,41E-02	5,11E-02
1227	1640	5,41E-02	5,11E-02
1229	1641	4,80E-02	4,52E-02
1228	1641	4,80E-02	4,52E-02
1212	1641	4,80E-02	4,52E-02
1213	1641	4,80E-02	4,52E-02
1213	1642	4,23E-02	3,98E-02
1230	1642	4,23E-02	3,98E-02
1214	1642	4,23E-02	3,98E-02
1229	1642	4,23E-02	3,98E-02
1230	1643	3,70E-02	3,51E-02
1214	1643	3,70E-02	3,51E-02
1215	1643	3,70E-02	3,51E-02
1231	1643	3,70E-02	3,51E-02
1231	1644	3,23E-02	3,18E-02
1232	1644	3,23E-02	3,18E-02
1215	1644	3,23E-02	3,18E-02
1216	1644	3,23E-02	3,18E-02
1232	1645	2,87E-02	3,09E-02
1233	1645	2,87E-02	3,09E-02
1216	1645	2,87E-02	3,09E-02
1217	1645	2,87E-02	3,09E-02
1219	1646	1,03E-01	1,04E-01
1235	1646	1,03E-01	1,04E-01
1218	1646	1,03E-01	1,04E-01
1234	1646	1,03E-01	1,04E-01
1236	1647	1,02E-01	1,03E-01
1220	1647	1,02E-01	1,03E-01
1219	1647	1,02E-01	1,03E-01
1235	1647	1,02E-01	1,03E-01
1220	1648	9,97E-02	9,95E-02
1236	1648	9,97E-02	9,95E-02
1237	1648	9,97E-02	9,95E-02
1221	1648	9,97E-02	9,95E-02
1221	1649	9,35E-02	9,30E-02
1222	1649	9,35E-02	9,30E-02
1237	1649	9,35E-02	9,30E-02
1238	1649	9,35E-02	9,30E-02
1223	1650	8,63E-02	8,57E-02
1222	1650	8,63E-02	8,57E-02
1239	1650	8,63E-02	8,57E-02
1238	1650	8,63E-02	8,57E-02
1240	1651	7,91E-02	7,84E-02
1239	1651	7,91E-02	7,84E-02
1223	1651	7,91E-02	7,84E-02
1224	1651	7,91E-02	7,84E-02
1225	1652	7,18E-02	7,12E-02
1240	1652	7,18E-02	7,12E-02
1241	1652	7,18E-02	7,12E-02
1224	1652	7,18E-02	7,12E-02
1241	1653	6,48E-02	6,41E-02
1242	1653	6,48E-02	6,41E-02
1225	1653	6,48E-02	6,41E-02
1226	1653	6,48E-02	6,41E-02
1226	1654	5,79E-02	5,72E-02
1243	1654	5,79E-02	5,72E-02
1242	1654	5,79E-02	5,72E-02
1227	1654	5,79E-02	5,72E-02
1228	1655	5,11E-02	5,05E-02
1244	1655	5,11E-02	5,05E-02
1227	1655	5,11E-02	5,05E-02
1243	1655	5,11E-02	5,05E-02
1245	1656	4,46E-02	4,40E-02
1228	1656	4,46E-02	4,40E-02
1244	1656	4,46E-02	4,40E-02
1229	1656	4,46E-02	4,40E-02
1246	1657	3,85E-02	3,80E-02
1245	1657	3,85E-02	3,80E-02
1229	1657	3,85E-02	3,80E-02
1230	1657	3,85E-02	3,80E-02
1247	1658	3,28E-02	3,27E-02
1230	1658	3,28E-02	3,27E-02
1231	1658	3,28E-02	3,27E-02
1246	1658	3,28E-02	3,27E-02
1231	1659	2,80E-02	2,88E-02
1247	1659	2,80E-02	2,88E-02
1248	1659	2,80E-02	2,88E-02
1232	1659	2,80E-02	2,88E-02
1249	1660	2,55E-02	2,57E-02
1248	1660	2,55E-02	2,57E-02
1233	1660	2,55E-02	2,57E-02
1232	1660	2,55E-02	2,57E-02
1235	1661	1,16E-01	1,19E-01
1251	1661	1,16E-01	1,19E-01
1234	1661	1,16E-01	1,19E-01
1250	1661	1,16E-01	1,19E-01
1236	1662	1,08E-01	1,11E-01
1252	1662	1,08E-01	1,11E-01
1235	1662	1,08E-01	1,11E-01
1251	1662	1,08E-01	1,11E-01
1236	1663	1,01E-01	1,04E-01
1252	1663	1,01E-01	1,04E-01
1253	1663	1,01E-01	1,04E-01
1237	1663	1,01E-01	1,04E-01
1254	1664	9,29E-02	9,54E-02
1237	1664	9,29E-02	9,54E-02
1253	1664	9,29E-02	9,54E-02
1238	1664	9,29E-02	9,54E-02
1255	1665	8,51E-02	8,74E-02
1254	1665	8,51E-02	8,74E-02
1238	1665	8,51E-02	8,74E-02
1239	1665	8,51E-02	8,74E-02
1256	1666	7,74E-02	7,95E-02
1239	1666	7,74E-02	7,95E-02
1240	1666	7,74E-02	7,95E-02
1255	1666	7,74E-02	7,95E-02
1240	1667	6,99E-02	7,19E-02
1257	1667	6,99E-02	7,19E-02
1256	1667	6,99E-02	7,19E-02
1241	1667	6,99E-02	7,19E-02
1258	1668	6,25E-02	6,45E-02
1241	1668	6,25E-02	6,45E-02
1257	1668	6,25E-02	6,45E-02
1242	1668	6,25E-02	6,45E-02
1258	1669	5,53E-02	5,73E-02
1242	1669	5,53E-02	5,73E-02
1259	1669	5,53E-02	5,73E-02
1243	1669	5,53E-02	5,73E-02
1243	1670	4,83E-02	5,02E-02
1259	1670	4,83E-02	5,02E-02
1260	1670	4,83E-02	5,02E-02
1244	1670	4,83E-02	5,02E-02
1244	1671	4,15E-02	4,33E-02
1261	1671	4,15E-02	4,33E-02
1245	1671	4,15E-02	4,33E-02
1260	1671	4,15E-02	4,33E-02
1245	1672	3,49E-02	3,67E-02
1262	1672	3,49E-02	3,67E-02
1246	1672	3,49E-02	3,67E-02
1261	1672	3,49E-02	3,67E-02
1262	1673	2,90E-02	3,08E-02
1263	1673	2,90E-02	3,08E-02
1247	1673	2,90E-02	3,08E-02
1246	1673	2,90E-02	3,08E-02
1247	1674	2,44E-02	2,53E-02
1263	1674	2,44E-02	2,53E-02
1264	1674	2,44E-02	2,53E-02
1248	1674	2,44E-02	2,53E-02
1264	1675	2,16E-02	2,04E-02
1265	1675	2,16E-02	2,04E-02
1248	1675	2,16E-02	2,04E-02
1249	1675	2,16E-02	2,04E-02
1266	1676	1,28E-01	1,30E-01
1267	1676	1,28E-01	1,30E-01
1251	1676	1,28E-01	1,30E-01
1250	1676	1,28E-01	1,30E-01
1268	1677	1,12E-01	1,16E-01
1267	1677	1,12E-01	1,16E-01
1252	1677	1,12E-01	1,16E-01
1251	1677	1,12E-01	1,16E-01
1269	1678	9,91E-02	1,04E-01
1252	1678	9,91E-02	1,04E-01
1253	1678	9,91E-02	1,04E-01
1268	1678	9,91E-02	1,04E-01
1269	1679	9,04E-02	9,55E-02
1253	1679	9,04E-02	9,55E-02
1254	1679	9,04E-02	9,55E-02
1270	1679	9,04E-02	9,55E-02
1254	1680	8,25E-02	8,74E-02
1271	1680	8,25E-02	8,74E-02
1255	1680	8,25E-02	8,74E-02
1270	1680	8,25E-02	8,74E-02
1256	1681	7,49E-02	7,97E-02
1255	1681	7,49E-02	7,97E-02
1271	1681	7,49E-02	7,97E-02
1272	1681	7,49E-02	7,97E-02
1256	1682	6,74E-02	7,22E-02
1273	1682	6,74E-02	7,22E-02
1257	1682	6,74E-02	7,22E-02
1272	1682	6,74E-02	7,22E-02
1274	1683	6,00E-02	6,47E-02
1258	1683	6,00E-02	6,47E-02
1273	1683	6,00E-02	6,47E-02
1257	1683	6,00E-02	6,47E-02
1258	1684	5,26E-02	5,73E-02
1274	1684	5,26E-02	5,73E-02
1275	1684	5,26E-02	5,73E-02
1259	1684	5,26E-02	5,73E-02
1260	1685	4,54E-02	5,00E-02
1275	1685	4,54E-02	5,00E-02
1276	1685	4,54E-02	5,00E-02
1259	1685	4,54E-02	5,00E-02
1260	1686	3,83E-02	4,29E-02
1261	1686	3,83E-02	4,29E-02
1276	1686	3,83E-02	4,29E-02
1277	1686	3,83E-02	4,29E-02
1261	1687	3,15E-02	3,59E-02
1262	1687	3,15E-02	3,59E-02
1278	1687	3,15E-02	3,59E-02
1277	1687	3,15E-02	3,59E-02
1279	1688	2,53E-02	2,92E-02
1262	1688	2,53E-02	2,92E-02
1263	1688	2,53E-02	2,92E-02
1278	1688	2,53E-02	2,92E-02
1263	1689	2,01E-02	2,26E-02
1280	1689	2,01E-02	2,26E-02
1264	1689	2,01E-02	2,26E-02
1279	1689	2,01E-02	2,26E-02
1264	1690	1,71E-02	1,70E-02
1281	1690	1,71E-02	1,70E-02
1265	1690	1,71E-02	1,70E-02
1280	1690	1,71E-02	1,70E-02
1283	1691	1,33E-01	1,39E-01
1267	1691	1,33E-01	1,39E-01
1266	1691	1,33E-01	1,39E-01
1282	1691	1,33E-01	1,39E-01
1283	1692	1,09E-01	1,16E-01
1284	1692	1,09E-01	1,16E-01
1268	1692	1,09E-01	1,16E-01
1267	1692	1,09E-01	1,16E-01
1284	1693	9,60E-02	1,03E-01
1268	1693	9,60E-02	1,03E-01
1285	1693	9,60E-02	1,03E-01
1269	1693	9,60E-02	1,03E-01
1269	1694	8,71E-02	9,44E-02
1285	1694	8,71E-02	9,44E-02
1286	1694	8,71E-02	9,44E-02
1270	1694	8,71E-02	9,44E-02
1286	1695	7,92E-02	8,66E-02
1271	1695	7,92E-02	8,66E-02
1270	1695	7,92E-02	8,66E-02
1287	1695	7,92E-02	8,66E-02
1272	1696	7,18E-02	7,93E-02
1288	1696	7,18E-02	7,93E-02
1271	1696	7,18E-02	7,93E-02
1287	1696	7,18E-02	7,93E-02
1288	1697	6,45E-02	7,20E-02
1289	1697	6,45E-02	7,20E-02
1272	1697	6,45E-02	7,20E-02
1273	1697	6,45E-02	7,20E-02
1274	1698	5,71E-02	6,47E-02
1289	1698	5,71E-02	6,47E-02
1290	1698	5,71E-02	6,47E-02
1273	1698	5,71E-02	6,47E-02
1290	1699	4,98E-02	5,74E-02
1275	1699	4,98E-02	5,74E-02
1274	1699	4,98E-02	5,74E-02
1291	1699	4,98E-02	5,74E-02
1275	1700	4,25E-02	5,00E-02
1291	1700	4,25E-02	5,00E-02
1292	1700	4,25E-02	5,00E-02
1276	1700	4,25E-02	5,00E-02
1277	1701	3,53E-02	4,27E-02
1293	1701	3,53E-02	4,27E-02
1292	1701	3,53E-02	4,27E-02
1276	1701	3,53E-02	4,27E-02
1294	1702	2,82E-02	3,55E-02
1293	1702	2,82E-02	3,55E-02
1277	1702	2,82E-02	3,55E-02
1278	1702	2,82E-02	3,55E-02
1278	1703	2,16E-02	2,82E-02
1279	1703	2,16E-02	2,82E-02
1294	1703	2,16E-02	2,82E-02
1295	1703	2,16E-02	2,82E-02
1296	1704	1,57E-02	2,13E-02
1280	1704	1,57E-02	2,13E-02
1295	1704	1,57E-02	2,13E-02
1279	1704	1,57E-02	2,13E-02
1281	1705	1,18E-02	1,46E-02
1296	1705	1,18E-02	1,46E-02
1280	1705	1,18E-02	1,46E-02
1297	1705	1,18E-02	1,46E-02
1283	1706	1,38E-01	1,40E-01
1282	1706	1,38E-01	1,40E-01
1298	1706	1,38E-01	1,40E-01
1299	1706	1,38E-01	1,40E-01
1283	1707	1,27E-01	1,28E-01
1284	1707	1,27E-01	1,28E-01
1300	1707	1,27E-01	1,28E-01
1299	1707	1,27E-01	1,28E-01
1301	1708	1,19E-01	1,21E-01
1284	1708	1,19E-01	1,21E-01
1285	1708	1,19E-01	1,21E-01
1300	1708	1,19E-01	1,21E-01
1302	1709	1,12E-01	1,14E-01
1286	1709	1,12E-01	1,14E-01
1285	1709	1,12E-01	1,14E-01
1301	1709	1,12E-01	1,14E-01
1286	1710	1,04E-01	1,06E-01
1287	1710	1,04E-01	1,06E-01
1303	1710	1,04E-01	1,06E-01
1302	1710	1,04E-01	1,06E-01
1303	1711	9,55E-02	9,84E-02
1287	1711	9,55E-02	9,84E-02
1304	1711	9,55E-02	9,84E-02
1288	1711	9,55E-02	9,84E-02
1305	1712	8,72E-02	9,01E-02
1304	1712	8,72E-02	9,01E-02
1289	1712	8,72E-02	9,01E-02
1288	1712	8,72E-02	9,01E-02
1306	1713	7,86E-02	8,17E-02
1305	1713	7,86E-02	8,17E-02
1290	1713	7,86E-02	8,17E-02
1289	1713	7,86E-02	8,17E-02
1290	1714	7,00E-02	7,32E-02
1291	1714	7,00E-02	7,32E-02
1307	1714	7,00E-02	7,32E-02
1306	1714	7,00E-02	7,32E-02
1291	1715	6,14E-02	6,47E-02
1308	1715	6,14E-02	6,47E-02
1307	1715	6,14E-02	6,47E-02
1292	1715	6,14E-02	6,47E-02
1309	1716	5,30E-02	5,63E-02
1293	1716	5,30E-02	5,63E-02
1292	1716	5,30E-02	5,63E-02
1308	1716	5,30E-02	5,63E-02
1309	1717	4,49E-02	4,82E-02
1310	1717	4,49E-02	4,82E-02
1294	1717	4,49E-02	4,82E-02
1293	1717	4,49E-02	4,82E-02
1295	1718	3,73E-02	4,05E-02
1294	1718	3,73E-02	4,05E-02
1310	1718	3,73E-02	4,05E-02
1311	1718	3,73E-02	4,05E-02
1312	1719	3,07E-02	3,37E-02
1311	1719	3,07E-02	3,37E-02
1295	1719	3,07E-02	3,37E-02
1296	1719	3,07E-02	3,37E-02
1312	1720	2,47E-02	2,92E-02
1296	1720	2,47E-02	2,92E-02
1313	1720	2,47E-02	2,92E-02
1297	1720	2,47E-02	2,92E-02
1314	1721	1,50E-01	1,47E-01
1315	1721	1,50E-01	1,47E-01
1299	1721	1,50E-01	1,47E-01
1298	1721	1,50E-01	1,47E-01
1316	1722	1,52E-01	1,49E-01
1315	1722	1,52E-01	1,49E-01
1300	1722	1,52E-01	1,49E-01
1299	1722	1,52E-01	1,49E-01
1317	1723	1,48E-01	1,45E-01
1300	1723	1,48E-01	1,45E-01
1301	1723	1,48E-01	1,45E-01
1316	1723	1,48E-01	1,45E-01
1317	1724	1,41E-01	1,38E-01
1318	1724	1,41E-01	1,38E-01
1301	1724	1,41E-01	1,38E-01
1302	1724	1,41E-01	1,38E-01
1318	1725	1,32E-01	1,29E-01
1302	1725	1,32E-01	1,29E-01
1303	1725	1,32E-01	1,29E-01
1319	1725	1,32E-01	1,29E-01
1320	1726	1,22E-01	1,20E-01
1304	1726	1,22E-01	1,20E-01
1303	1726	1,22E-01	1,20E-01
1319	1726	1,22E-01	1,20E-01
1304	1727	1,12E-01	1,10E-01
1320	1727	1,12E-01	1,10E-01
1321	1727	1,12E-01	1,10E-01
1305	1727	1,12E-01	1,10E-01
1306	1728	1,01E-01	9,92E-02
1321	1728	1,01E-01	9,92E-02
1322	1728	1,01E-01	9,92E-02
1305	1728	1,01E-01	9,92E-02
1307	1729	9,06E-02	8,88E-02
1323	1729	9,06E-02	8,88E-02
1306	1729	9,06E-02	8,88E-02
1322	1729	9,06E-02	8,88E-02
1308	1730	8,04E-02	7,86E-02
1323	1730	8,04E-02	7,86E-02
1324	1730	8,04E-02	7,86E-02
1307	1730	8,04E-02	7,86E-02
1324	1731	7,03E-02	6,87E-02
1325	1731	7,03E-02	6,87E-02
1308	1731	7,03E-02	6,87E-02
1309	1731	7,03E-02	6,87E-02
1325	1732	6,08E-02	5,94E-02
1326	1732	6,08E-02	5,94E-02
1310	1732	6,08E-02	5,94E-02
1309	1732	6,08E-02	5,94E-02
1327	1733	5,20E-02	5,10E-02
1310	1733	5,20E-02	5,10E-02
1326	1733	5,20E-02	5,10E-02
1311	1733	5,20E-02	5,10E-02
1312	1734	4,41E-02	4,48E-02
1327	1734	4,41E-02	4,48E-02
1328	1734	4,41E-02	4,48E-02
1311	1734	4,41E-02	4,48E-02
1312	1735	3,80E-02	4,22E-02
1313	1735	3,80E-02	4,22E-02
1328	1735	3,80E-02	4,22E-02
1329	1735	3,80E-02	4,22E-02
1315	1736	1,64E-01	1,67E-01
1331	1736	1,64E-01	1,67E-01
1314	1736	1,64E-01	1,67E-01
1330	1736	1,64E-01	1,67E-01
1331	1737	1,61E-01	1,63E-01
1316	1737	1,61E-01	1,63E-01
1332	1737	1,61E-01	1,63E-01
1315	1737	1,61E-01	1,63E-01
1332	1738	1,55E-01	1,56E-01
1316	1738	1,55E-01	1,56E-01
1317	1738	1,55E-01	1,56E-01
1333	1738	1,55E-01	1,56E-01
1317	1739	1,45E-01	1,46E-01
1334	1739	1,45E-01	1,46E-01
1333	1739	1,45E-01	1,46E-01
1318	1739	1,45E-01	1,46E-01
1319	1740	1,34E-01	1,35E-01
1335	1740	1,34E-01	1,35E-01
1318	1740	1,34E-01	1,35E-01
1334	1740	1,34E-01	1,35E-01
1320	1741	1,23E-01	1,23E-01
1335	1741	1,23E-01	1,23E-01
1336	1741	1,23E-01	1,23E-01
1319	1741	1,23E-01	1,23E-01
1321	1742	1,11E-01	1,12E-01
1336	1742	1,11E-01	1,12E-01
1337	1742	1,11E-01	1,12E-01
1320	1742	1,11E-01	1,12E-01
1322	1743	1,00E-01	1,00E-01
1338	1743	1,00E-01	1,00E-01
1321	1743	1,00E-01	1,00E-01
1337	1743	1,00E-01	1,00E-01
1323	1744	8,88E-02	8,88E-02
1339	1744	8,88E-02	8,88E-02
1338	1744	8,88E-02	8,88E-02
1322	1744	8,88E-02	8,88E-02
1323	1745	7,77E-02	7,78E-02
1339	1745	7,77E-02	7,78E-02
1324	1745	7,77E-02	7,78E-02
1340	1745	7,77E-02	7,78E-02
1340	1746	6,69E-02	6,70E-02
1324	1746	6,69E-02	6,70E-02
1325	1746	6,69E-02	6,70E-02
1341	1746	6,69E-02	6,70E-02
1325	1747	5,65E-02	5,68E-02
1326	1747	5,65E-02	5,68E-02
1342	1747	5,65E-02	5,68E-02
1341	1747	5,65E-02	5,68E-02
1342	1748	4,66E-02	4,76E-02
1326	1748	4,66E-02	4,76E-02
1343	1748	4,66E-02	4,76E-02
1327	1748	4,66E-02	4,76E-02
1327	1749	3,79E-02	4,05E-02
1344	1749	3,79E-02	4,05E-02
1328	1749	3,79E-02	4,05E-02
1343	1749	3,79E-02	4,05E-02
1345	1750	3,28E-02	3,49E-02
1328	1750	3,28E-02	3,49E-02
1329	1750	3,28E-02	3,49E-02
1344	1750	3,28E-02	3,49E-02
1330	1751	1,79E-01	1,82E-01
1331	1751	1,79E-01	1,82E-01
1346	1751	1,79E-01	1,82E-01
1347	1751	1,79E-01	1,82E-01
1348	1752	1,69E-01	1,74E-01
1347	1752	1,69E-01	1,74E-01
1331	1752	1,69E-01	1,74E-01
1332	1752	1,69E-01	1,74E-01
1348	1753	1,59E-01	1,63E-01
1333	1753	1,59E-01	1,63E-01
1332	1753	1,59E-01	1,63E-01
1349	1753	1,59E-01	1,63E-01
1333	1754	1,47E-01	1,51E-01
1349	1754	1,47E-01	1,51E-01
1334	1754	1,47E-01	1,51E-01
1350	1754	1,47E-01	1,51E-01
1335	1755	1,35E-01	1,38E-01
1351	1755	1,35E-01	1,38E-01
1334	1755	1,35E-01	1,38E-01
1350	1755	1,35E-01	1,38E-01
1352	1756	1,23E-01	1,25E-01
1335	1756	1,23E-01	1,25E-01
1351	1756	1,23E-01	1,25E-01
1336	1756	1,23E-01	1,25E-01
1337	1757	1,11E-01	1,13E-01
1353	1757	1,11E-01	1,13E-01
1352	1757	1,11E-01	1,13E-01
1336	1757	1,11E-01	1,13E-01
1353	1758	9,86E-02	1,01E-01
1337	1758	9,86E-02	1,01E-01
1354	1758	9,86E-02	1,01E-01
1338	1758	9,86E-02	1,01E-01
1354	1759	8,68E-02	8,89E-02
1339	1759	8,68E-02	8,89E-02
1338	1759	8,68E-02	8,89E-02
1355	1759	8,68E-02	8,89E-02
1355	1760	7,51E-02	7,72E-02
1356	1760	7,51E-02	7,72E-02
1339	1760	7,51E-02	7,72E-02
1340	1760	7,51E-02	7,72E-02
1340	1761	6,37E-02	6,58E-02
1356	1761	6,37E-02	6,58E-02
1357	1761	6,37E-02	6,58E-02
1341	1761	6,37E-02	6,58E-02
1342	1762	5,26E-02	5,48E-02
1358	1762	5,26E-02	5,48E-02
1341	1762	5,26E-02	5,48E-02
1357	1762	5,26E-02	5,48E-02
1358	1763	4,20E-02	4,47E-02
1359	1763	4,20E-02	4,47E-02
1343	1763	4,20E-02	4,47E-02
1342	1763	4,20E-02	4,47E-02
1360	1764	3,29E-02	3,55E-02
1359	1764	3,29E-02	3,55E-02
1343	1764	3,29E-02	3,55E-02
1344	1764	3,29E-02	3,55E-02
1361	1765	2,69E-02	2,73E-02
1345	1765	2,69E-02	2,73E-02
1360	1765	2,69E-02	2,73E-02
1344	1765	2,69E-02	2,73E-02
1346	1766	1,91E-01	1,95E-01
1347	1766	1,91E-01	1,95E-01
1362	1766	1,91E-01	1,95E-01
1363	1766	1,91E-01	1,95E-01
1348	1767	1,76E-01	1,81E-01
1363	1767	1,76E-01	1,81E-01
1364	1767	1,76E-01	1,81E-01
1347	1767	1,76E-01	1,81E-01
1348	1768	1,61E-01	1,66E-01
1349	1768	1,61E-01	1,66E-01
1364	1768	1,61E-01	1,66E-01
1365	1768	1,61E-01	1,66E-01
1349	1769	1,46E-01	1,52E-01
1365	1769	1,46E-01	1,52E-01
1350	1769	1,46E-01	1,52E-01
1366	1769	1,46E-01	1,52E-01
1351	1770	1,34E-01	1,39E-01
1367	1770	1,34E-01	1,39E-01
1366	1770	1,34E-01	1,39E-01
1350	1770	1,34E-01	1,39E-01
1352	1771	1,21E-01	1,26E-01
1367	1771	1,21E-01	1,26E-01
1368	1771	1,21E-01	1,26E-01
1351	1771	1,21E-01	1,26E-01
1352	1772	1,09E-01	1,13E-01
1369	1772	1,09E-01	1,13E-01
1353	1772	1,09E-01	1,13E-01
1368	1772	1,09E-01	1,13E-01
1353	1773	9,65E-02	1,01E-01
1354	1773	9,65E-02	1,01E-01
1369	1773	9,65E-02	1,01E-01
1370	1773	9,65E-02	1,01E-01
1370	1774	8,44E-02	8,87E-02
1354	1774	8,44E-02	8,87E-02
1371	1774	8,44E-02	8,87E-02
1355	1774	8,44E-02	8,87E-02
1355	1775	7,25E-02	7,67E-02
1356	1775	7,25E-02	7,67E-02
1371	1775	7,25E-02	7,67E-02
1372	1775	7,25E-02	7,67E-02
1356	1776	6,07E-02	6,49E-02
1357	1776	6,07E-02	6,49E-02
1372	1776	6,07E-02	6,49E-02
1373	1776	6,07E-02	6,49E-02
1357	1777	4,92E-02	5,34E-02
1358	1777	4,92E-02	5,34E-02
1373	1777	4,92E-02	5,34E-02
1374	1777	4,92E-02	5,34E-02
1375	1778	3,81E-02	4,22E-02
1358	1778	3,81E-02	4,22E-02
1359	1778	3,81E-02	4,22E-02
1374	1778	3,81E-02	4,22E-02
1375	1779	2,81E-02	3,14E-02
1360	1779	2,81E-02	3,14E-02
1359	1779	2,81E-02	3,14E-02
1376	1779	2,81E-02	3,14E-02
1376	1780	2,08E-02	2,21E-02
1377	1780	2,08E-02	2,21E-02
1360	1780	2,08E-02	2,21E-02
1361	1780	2,08E-02	2,21E-02
1379	1781	2,02E-01	2,05E-01
1362	1781	2,02E-01	2,05E-01
1378	1781	2,02E-01	2,05E-01
1363	1781	2,02E-01	2,05E-01
1363	1782	1,79E-01	1,84E-01
1380	1782	1,79E-01	1,84E-01
1364	1782	1,79E-01	1,84E-01
1379	1782	1,79E-01	1,84E-01
1381	1783	1,58E-01	1,65E-01
1380	1783	1,58E-01	1,65E-01
1364	1783	1,58E-01	1,65E-01
1365	1783	1,58E-01	1,65E-01
1382	1784	1,43E-01	1,50E-01
1381	1784	1,43E-01	1,50E-01
1365	1784	1,43E-01	1,50E-01
1366	1784	1,43E-01	1,50E-01
1383	1785	1,30E-01	1,37E-01
1366	1785	1,30E-01	1,37E-01
1367	1785	1,30E-01	1,37E-01
1382	1785	1,30E-01	1,37E-01
1383	1786	1,18E-01	1,24E-01
1384	1786	1,18E-01	1,24E-01
1367	1786	1,18E-01	1,24E-01
1368	1786	1,18E-01	1,24E-01
1368	1787	1,06E-01	1,12E-01
1384	1787	1,06E-01	1,12E-01
1369	1787	1,06E-01	1,12E-01
1385	1787	1,06E-01	1,12E-01
1369	1788	9,37E-02	1,00E-01
1386	1788	9,37E-02	1,00E-01
1385	1788	9,37E-02	1,00E-01
1370	1788	9,37E-02	1,00E-01
1370	1789	8,18E-02	8,82E-02
1387	1789	8,18E-02	8,82E-02
1371	1789	8,18E-02	8,82E-02
1386	1789	8,18E-02	8,82E-02
1371	1790	6,98E-02	7,62E-02
1387	1790	6,98E-02	7,62E-02
1372	1790	6,98E-02	7,62E-02
1388	1790	6,98E-02	7,62E-02
1373	1791	5,80E-02	6,43E-02
1372	1791	5,80E-02	6,43E-02
1389	1791	5,80E-02	6,43E-02
1388	1791	5,80E-02	6,43E-02
1390	1792	4,62E-02	5,25E-02
1374	1792	4,62E-02	5,25E-02
1389	1792	4,62E-02	5,25E-02
1373	1792	4,62E-02	5,25E-02
1391	1793	3,47E-02	4,05E-02
1375	1793	3,47E-02	4,05E-02
1390	1793	3,47E-02	4,05E-02
1374	1793	3,47E-02	4,05E-02
1375	1794	2,39E-02	2,89E-02
1391	1794	2,39E-02	2,89E-02
1376	1794	2,39E-02	2,89E-02
1392	1794	2,39E-02	2,89E-02
1376	1795	1,50E-02	1,78E-02
1377	1795	1,50E-02	1,78E-02
1393	1795	1,50E-02	1,78E-02
1392	1795	1,50E-02	1,78E-02
1394	1796	2,05E-01	2,11E-01
1378	1796	2,05E-01	2,11E-01
1395	1796	2,05E-01	2,11E-01
1379	1796	2,05E-01	2,11E-01
1395	1797	1,73E-01	1,81E-01
1379	1797	1,73E-01	1,81E-01
1396	1797	1,73E-01	1,81E-01
1380	1797	1,73E-01	1,81E-01
1380	1798	1,53E-01	1,61E-01
1381	1798	1,53E-01	1,61E-01
1396	1798	1,53E-01	1,61E-01
1397	1798	1,53E-01	1,61E-01
1382	1799	1,39E-01	1,47E-01
1381	1799	1,39E-01	1,47E-01
1397	1799	1,39E-01	1,47E-01
1398	1799	1,39E-01	1,47E-01
1398	1800	1,26E-01	1,34E-01
1383	1800	1,26E-01	1,34E-01
1399	1800	1,26E-01	1,34E-01
1382	1800	1,26E-01	1,34E-01
1399	1801	1,14E-01	1,23E-01
1400	1801	1,14E-01	1,23E-01
1383	1801	1,14E-01	1,23E-01
1384	1801	1,14E-01	1,23E-01
1384	1802	1,02E-01	1,11E-01
1401	1802	1,02E-01	1,11E-01
1400	1802	1,02E-01	1,11E-01
1385	1802	1,02E-01	1,11E-01
1386	1803	9,07E-02	9,93E-02
1401	1803	9,07E-02	9,93E-02
1402	1803	9,07E-02	9,93E-02
1385	1803	9,07E-02	9,93E-02
1403	1804	7,90E-02	8,77E-02
1402	1804	7,90E-02	8,77E-02
1386	1804	7,90E-02	8,77E-02
1387	1804	7,90E-02	8,77E-02
1388	1805	6,72E-02	7,59E-02
1387	1805	6,72E-02	7,59E-02
1404	1805	6,72E-02	7,59E-02
1403	1805	6,72E-02	7,59E-02
1404	1806	5,54E-02	6,41E-02
1388	1806	5,54E-02	6,41E-02
1405	1806	5,54E-02	6,41E-02
1389	1806	5,54E-02	6,41E-02
1406	1807	4,37E-02	5,22E-02
1390	1807	4,37E-02	5,22E-02
1405	1807	4,37E-02	5,22E-02
1389	1807	4,37E-02	5,22E-02
1407	1808	3,21E-02	4,02E-02
1406	1808	3,21E-02	4,02E-02
1391	1808	3,21E-02	4,02E-02
1390	1808	3,21E-02	4,02E-02
1407	1809	2,09E-02	2,79E-02
1392	1809	2,09E-02	2,79E-02
1391	1809	2,09E-02	2,79E-02
1408	1809	2,09E-02	2,79E-02
1409	1810	1,05E-02	1,57E-02
1408	1810	1,05E-02	1,57E-02
1392	1810	1,05E-02	1,57E-02
1393	1810	1,05E-02	1,57E-02
1411	1811	2,07E-01	2,10E-01
1394	1811	2,07E-01	2,10E-01
1410	1811	2,07E-01	2,10E-01
1395	1811	2,07E-01	2,10E-01
1411	1812	1,90E-01	1,90E-01
1412	1812	1,90E-01	1,90E-01
1396	1812	1,90E-01	1,90E-01
1395	1812	1,90E-01	1,90E-01
1396	1813	1,77E-01	1,78E-01
1397	1813	1,77E-01	1,78E-01
1412	1813	1,77E-01	1,78E-01
1413	1813	1,77E-01	1,78E-01
1398	1814	1,64E-01	1,67E-01
1413	1814	1,64E-01	1,67E-01
1414	1814	1,64E-01	1,67E-01
1397	1814	1,64E-01	1,67E-01
1414	1815	1,52E-01	1,55E-01
1415	1815	1,52E-01	1,55E-01
1399	1815	1,52E-01	1,55E-01
1398	1815	1,52E-01	1,55E-01
1399	1816	1,39E-01	1,43E-01
1415	1816	1,39E-01	1,43E-01
1416	1816	1,39E-01	1,43E-01
1400	1816	1,39E-01	1,43E-01
1416	1817	1,27E-01	1,31E-01
1417	1817	1,27E-01	1,31E-01
1401	1817	1,27E-01	1,31E-01
1400	1817	1,27E-01	1,31E-01
1401	1818	1,14E-01	1,18E-01
1417	1818	1,14E-01	1,18E-01
1418	1818	1,14E-01	1,18E-01
1402	1818	1,14E-01	1,18E-01
1403	1819	1,01E-01	1,05E-01
1418	1819	1,01E-01	1,05E-01
1419	1819	1,01E-01	1,05E-01
1402	1819	1,01E-01	1,05E-01
1420	1820	8,79E-02	9,21E-02
1403	1820	8,79E-02	9,21E-02
1419	1820	8,79E-02	9,21E-02
1404	1820	8,79E-02	9,21E-02
1405	1821	7,51E-02	7,94E-02
1404	1821	7,51E-02	7,94E-02
1420	1821	7,51E-02	7,94E-02
1421	1821	7,51E-02	7,94E-02
1422	1822	6,26E-02	6,68E-02
1406	1822	6,26E-02	6,68E-02
1405	1822	6,26E-02	6,68E-02
1421	1822	6,26E-02	6,68E-02
1406	1823	5,07E-02	5,47E-02
1422	1823	5,07E-02	5,47E-02
1407	1823	5,07E-02	5,47E-02
1423	1823	5,07E-02	5,47E-02
1424	1824	3,97E-02	4,36E-02
1408	1824	3,97E-02	4,36E-02
1423	1824	3,97E-02	4,36E-02
1407	1824	3,97E-02	4,36E-02
1408	1825	2,92E-02	3,49E-02
1409	1825	2,92E-02	3,49E-02
1425	1825	2,92E-02	3,49E-02
1424	1825	2,92E-02	3,49E-02
1410	1826	2,21E-01	2,18E-01
1411	1826	2,21E-01	2,18E-01
1427	1826	2,21E-01	2,18E-01
1426	1826	2,21E-01	2,18E-01
1412	1827	2,17E-01	2,15E-01
1427	1827	2,17E-01	2,15E-01
1428	1827	2,17E-01	2,15E-01
1411	1827	2,17E-01	2,15E-01
1412	1828	2,08E-01	2,06E-01
1428	1828	2,08E-01	2,06E-01
1429	1828	2,08E-01	2,06E-01
1413	1828	2,08E-01	2,06E-01
1429	1829	1,96E-01	1,94E-01
1414	1829	1,96E-01	1,94E-01
1430	1829	1,96E-01	1,94E-01
1413	1829	1,96E-01	1,94E-01
1415	1830	1,82E-01	1,81E-01
1431	1830	1,82E-01	1,81E-01
1430	1830	1,82E-01	1,81E-01
1414	1830	1,82E-01	1,81E-01
1415	1831	1,68E-01	1,67E-01
1432	1831	1,68E-01	1,67E-01
1431	1831	1,68E-01	1,67E-01
1416	1831	1,68E-01	1,67E-01
1417	1832	1,53E-01	1,52E-01
1416	1832	1,53E-01	1,52E-01
1432	1832	1,53E-01	1,52E-01
1433	1832	1,53E-01	1,52E-01
1433	1833	1,38E-01	1,37E-01
1434	1833	1,38E-01	1,37E-01
1417	1833	1,38E-01	1,37E-01
1418	1833	1,38E-01	1,37E-01
1434	1834	1,23E-01	1,23E-01
1435	1834	1,23E-01	1,23E-01
1419	1834	1,23E-01	1,23E-01
1418	1834	1,23E-01	1,23E-01
1419	1835	1,08E-01	1,08E-01
1435	1835	1,08E-01	1,08E-01
1436	1835	1,08E-01	1,08E-01
1420	1835	1,08E-01	1,08E-01
1436	1836	9,37E-02	9,33E-02
1437	1836	9,37E-02	9,33E-02
1421	1836	9,37E-02	9,33E-02
1420	1836	9,37E-02	9,33E-02
1437	1837	7,98E-02	7,94E-02
1421	1837	7,98E-02	7,94E-02
1422	1837	7,98E-02	7,94E-02
1438	1837	7,98E-02	7,94E-02
1439	1838	6,67E-02	6,66E-02
1422	1838	6,67E-02	6,66E-02
1438	1838	6,67E-02	6,66E-02
1423	1838	6,67E-02	6,66E-02
1423	1839	5,50E-02	5,65E-02
1439	1839	5,50E-02	5,65E-02
1440	1839	5,50E-02	5,65E-02
1424	1839	5,50E-02	5,65E-02
1440	1840	4,58E-02	5,14E-02
1425	1840	4,58E-02	5,14E-02
1441	1840	4,58E-02	5,14E-02
1424	1840	4,58E-02	5,14E-02
1443	1841	2,37E-01	2,40E-01
1427	1841	2,37E-01	2,40E-01
1426	1841	2,37E-01	2,40E-01
1442	1841	2,37E-01	2,40E-01
1443	1842	2,28E-01	2,32E-01
1428	1842	2,28E-01	2,32E-01
1427	1842	2,28E-01	2,32E-01
1444	1842	2,28E-01	2,32E-01
1445	1843	2,17E-01	2,19E-01
1428	1843	2,17E-01	2,19E-01
1429	1843	2,17E-01	2,19E-01
1444	1843	2,17E-01	2,19E-01
1429	1844	2,02E-01	2,04E-01
1446	1844	2,02E-01	2,04E-01
1445	1844	2,02E-01	2,04E-01
1430	1844	2,02E-01	2,04E-01
1447	1845	1,86E-01	1,88E-01
1430	1845	1,86E-01	1,88E-01
1431	1845	1,86E-01	1,88E-01
1446	1845	1,86E-01	1,88E-01
1448	1846	1,70E-01	1,72E-01
1431	1846	1,70E-01	1,72E-01
1432	1846	1,70E-01	1,72E-01
1447	1846	1,70E-01	1,72E-01
1449	1847	1,54E-01	1,55E-01
1448	1847	1,54E-01	1,55E-01
1433	1847	1,54E-01	1,55E-01
1432	1847	1,54E-01	1,55E-01
1450	1848	1,37E-01	1,39E-01
1434	1848	1,37E-01	1,39E-01
1449	1848	1,37E-01	1,39E-01
1433	1848	1,37E-01	1,39E-01
1434	1849	1,21E-01	1,23E-01
1451	1849	1,21E-01	1,23E-01
1435	1849	1,21E-01	1,23E-01
1450	1849	1,21E-01	1,23E-01
1436	1850	1,05E-01	1,07E-01
1451	1850	1,05E-01	1,07E-01
1435	1850	1,05E-01	1,07E-01
1452	1850	1,05E-01	1,07E-01
1452	1851	8,98E-02	9,12E-02
1437	1851	8,98E-02	9,12E-02
1436	1851	8,98E-02	9,12E-02
1453	1851	8,98E-02	9,12E-02
1454	1852	7,46E-02	7,62E-02
1453	1852	7,46E-02	7,62E-02
1438	1852	7,46E-02	7,62E-02
1437	1852	7,46E-02	7,62E-02
1454	1853	6,00E-02	6,23E-02
1439	1853	6,00E-02	6,23E-02
1455	1853	6,00E-02	6,23E-02
1438	1853	6,00E-02	6,23E-02
1455	1854	4,67E-02	5,10E-02
1439	1854	4,67E-02	5,10E-02
1440	1854	4,67E-02	5,10E-02
1456	1854	4,67E-02	5,10E-02
1440	1855	3,82E-02	4,20E-02
1456	1855	3,82E-02	4,20E-02
1441	1855	3,82E-02	4,20E-02
1457	1855	3,82E-02	4,20E-02
1442	1856	2,52E-01	2,57E-01
1458	1856	2,52E-01	2,57E-01
1443	1856	2,52E-01	2,57E-01
1459	1856	2,52E-01	2,57E-01
1459	1857	2,38E-01	2,44E-01
1460	1857	2,38E-01	2,44E-01
1444	1857	2,38E-01	2,44E-01
1443	1857	2,38E-01	2,44E-01
1445	1858	2,22E-01	2,28E-01
1444	1858	2,22E-01	2,28E-01
1460	1858	2,22E-01	2,28E-01
1461	1858	2,22E-01	2,28E-01
1446	1859	2,05E-01	2,10E-01
1461	1859	2,05E-01	2,10E-01
1462	1859	2,05E-01	2,10E-01
1445	1859	2,05E-01	2,10E-01
1462	1860	1,88E-01	1,92E-01
1463	1860	1,88E-01	1,92E-01
1447	1860	1,88E-01	1,92E-01
1446	1860	1,88E-01	1,92E-01
1447	1861	1,70E-01	1,74E-01
1464	1861	1,70E-01	1,74E-01
1448	1861	1,70E-01	1,74E-01
1463	1861	1,70E-01	1,74E-01
1448	1862	1,53E-01	1,57E-01
1464	1862	1,53E-01	1,57E-01
1449	1862	1,53E-01	1,57E-01
1465	1862	1,53E-01	1,57E-01
1466	1863	1,36E-01	1,40E-01
1450	1863	1,36E-01	1,40E-01
1465	1863	1,36E-01	1,40E-01
1449	1863	1,36E-01	1,40E-01
1466	1864	1,19E-01	1,23E-01
1467	1864	1,19E-01	1,23E-01
1451	1864	1,19E-01	1,23E-01
1450	1864	1,19E-01	1,23E-01
1452	1865	1,03E-01	1,06E-01
1467	1865	1,03E-01	1,06E-01
1468	1865	1,03E-01	1,06E-01
1451	1865	1,03E-01	1,06E-01
1468	1866	8,64E-02	8,98E-02
1469	1866	8,64E-02	8,98E-02
1452	1866	8,64E-02	8,98E-02
1453	1866	8,64E-02	8,98E-02
1453	1867	7,03E-02	7,39E-02
1454	1867	7,03E-02	7,39E-02
1469	1867	7,03E-02	7,39E-02
1470	1867	7,03E-02	7,39E-02
1454	1868	5,45E-02	5,90E-02
1455	1868	5,45E-02	5,90E-02
1471	1868	5,45E-02	5,90E-02
1470	1868	5,45E-02	5,90E-02
1471	1869	4,04E-02	4,51E-02
1472	1869	4,04E-02	4,51E-02
1455	1869	4,04E-02	4,51E-02
1456	1869	4,04E-02	4,51E-02
1473	1870	3,01E-02	3,23E-02
1472	1870	3,01E-02	3,23E-02
1457	1870	3,01E-02	3,23E-02
1456	1870	3,01E-02	3,23E-02
1459	1871	2,64E-01	2,70E-01
1474	1871	2,64E-01	2,70E-01
1475	1871	2,64E-01	2,70E-01
1458	1871	2,64E-01	2,70E-01
1476	1872	2,45E-01	2,52E-01
1475	1872	2,45E-01	2,52E-01
1460	1872	2,45E-01	2,52E-01
1459	1872	2,45E-01	2,52E-01
1461	1873	2,24E-01	2,31E-01
1477	1873	2,24E-01	2,31E-01
1476	1873	2,24E-01	2,31E-01
1460	1873	2,24E-01	2,31E-01
1461	1874	2,04E-01	2,11E-01
1462	1874	2,04E-01	2,11E-01
1478	1874	2,04E-01	2,11E-01
1477	1874	2,04E-01	2,11E-01
1463	1875	1,86E-01	1,93E-01
1478	1875	1,86E-01	1,93E-01
1479	1875	1,86E-01	1,93E-01
1462	1875	1,86E-01	1,93E-01
1464	1876	1,68E-01	1,75E-01
1479	1876	1,68E-01	1,75E-01
1463	1876	1,68E-01	1,75E-01
1480	1876	1,68E-01	1,75E-01
1465	1877	1,51E-01	1,57E-01
1481	1877	1,51E-01	1,57E-01
1480	1877	1,51E-01	1,57E-01
1464	1877	1,51E-01	1,57E-01
1465	1878	1,34E-01	1,40E-01
1482	1878	1,34E-01	1,40E-01
1481	1878	1,34E-01	1,40E-01
1466	1878	1,34E-01	1,40E-01
1482	1879	1,17E-01	1,23E-01
1483	1879	1,17E-01	1,23E-01
1466	1879	1,17E-01	1,23E-01
1467	1879	1,17E-01	1,23E-01
1468	1880	1,00E-01	1,06E-01
1483	1880	1,00E-01	1,06E-01
1484	1880	1,00E-01	1,06E-01
1467	1880	1,00E-01	1,06E-01
1484	1881	8,34E-02	8,89E-02
1485	1881	8,34E-02	8,89E-02
1468	1881	8,34E-02	8,89E-02
1469	1881	8,34E-02	8,89E-02
1470	1882	6,67E-02	7,24E-02
1485	1882	6,67E-02	7,24E-02
1486	1882	6,67E-02	7,24E-02
1469	1882	6,67E-02	7,24E-02
1486	1883	5,04E-02	5,63E-02
1487	1883	5,04E-02	5,63E-02
1470	1883	5,04E-02	5,63E-02
1471	1883	5,04E-02	5,63E-02
1487	1884	3,48E-02	4,05E-02
1471	1884	3,48E-02	4,05E-02
1488	1884	3,48E-02	4,05E-02
1472	1884	3,48E-02	4,05E-02
1488	1885	2,23E-02	2,60E-02
1473	1885	2,23E-02	2,60E-02
1489	1885	2,23E-02	2,60E-02
1472	1885	2,23E-02	2,60E-02
1474	1886	2,75E-01	2,78E-01
1475	1886	2,75E-01	2,78E-01
1490	1886	2,75E-01	2,78E-01
1491	1886	2,75E-01	2,78E-01
1475	1887	2,46E-01	2,53E-01
1492	1887	2,46E-01	2,53E-01
1476	1887	2,46E-01	2,53E-01
1491	1887	2,46E-01	2,53E-01
1493	1888	2,20E-01	2,29E-01
1477	1888	2,20E-01	2,29E-01
1476	1888	2,20E-01	2,29E-01
1492	1888	2,20E-01	2,29E-01
1494	1889	2,00E-01	2,09E-01
1478	1889	2,00E-01	2,09E-01
1493	1889	2,00E-01	2,09E-01
1477	1889	2,00E-01	2,09E-01
1479	1890	1,82E-01	1,90E-01
1494	1890	1,82E-01	1,90E-01
1478	1890	1,82E-01	1,90E-01
1495	1890	1,82E-01	1,90E-01
1495	1891	1,65E-01	1,73E-01
1479	1891	1,65E-01	1,73E-01
1496	1891	1,65E-01	1,73E-01
1480	1891	1,65E-01	1,73E-01
1496	1892	1,48E-01	1,56E-01
1481	1892	1,48E-01	1,56E-01
1480	1892	1,48E-01	1,56E-01
1497	1892	1,48E-01	1,56E-01
1482	1893	1,31E-01	1,39E-01
1497	1893	1,31E-01	1,39E-01
1481	1893	1,31E-01	1,39E-01
1498	1893	1,31E-01	1,39E-01
1482	1894	1,14E-01	1,22E-01
1499	1894	1,14E-01	1,22E-01
1483	1894	1,14E-01	1,22E-01
1498	1894	1,14E-01	1,22E-01
1484	1895	9,74E-02	1,05E-01
1500	1895	9,74E-02	1,05E-01
1483	1895	9,74E-02	1,05E-01
1499	1895	9,74E-02	1,05E-01
1500	1896	8,07E-02	8,84E-02
1501	1896	8,07E-02	8,84E-02
1485	1896	8,07E-02	8,84E-02
1484	1896	8,07E-02	8,84E-02
1486	1897	6,40E-02	7,17E-02
1502	1897	6,40E-02	7,17E-02
1485	1897	6,40E-02	7,17E-02
1501	1897	6,40E-02	7,17E-02
1503	1898	4,74E-02	5,48E-02
1487	1898	4,74E-02	5,48E-02
1502	1898	4,74E-02	5,48E-02
1486	1898	4,74E-02	5,48E-02
1488	1899	3,10E-02	3,83E-02
1503	1899	3,10E-02	3,83E-02
1504	1899	3,10E-02	3,83E-02
1487	1899	3,10E-02	3,83E-02
1488	1900	1,57E-02	2,24E-02
1505	1900	1,57E-02	2,24E-02
1489	1900	1,57E-02	2,24E-02
1504	1900	1,57E-02	2,24E-02
1491	1901	2,76E-01	2,82E-01
1507	1901	2,76E-01	2,82E-01
1506	1901	2,76E-01	2,82E-01
1490	1901	2,76E-01	2,82E-01
1492	1902	2,38E-01	2,46E-01
1491	1902	2,38E-01	2,46E-01
1508	1902	2,38E-01	2,46E-01
1507	1902	2,38E-01	2,46E-01
1493	1903	2,13E-01	2,22E-01
1492	1903	2,13E-01	2,22E-01
1508	1903	2,13E-01	2,22E-01
1509	1903	2,13E-01	2,22E-01
1510	1904	1,94E-01	2,03E-01
1509	1904	1,94E-01	2,03E-01
1493	1904	1,94E-01	2,03E-01
1494	1904	1,94E-01	2,03E-01
1511	1905	1,77E-01	1,86E-01
1510	1905	1,77E-01	1,86E-01
1494	1905	1,77E-01	1,86E-01
1495	1905	1,77E-01	1,86E-01
1511	1906	1,60E-01	1,70E-01
1495	1906	1,60E-01	1,70E-01
1512	1906	1,60E-01	1,70E-01
1496	1906	1,60E-01	1,70E-01
1512	1907	1,44E-01	1,54E-01
1496	1907	1,44E-01	1,54E-01
1497	1907	1,44E-01	1,54E-01
1513	1907	1,44E-01	1,54E-01
1514	1908	1,28E-01	1,38E-01
1497	1908	1,28E-01	1,38E-01
1513	1908	1,28E-01	1,38E-01
1498	1908	1,28E-01	1,38E-01
1498	1909	1,11E-01	1,21E-01
1515	1909	1,11E-01	1,21E-01
1499	1909	1,11E-01	1,21E-01
1514	1909	1,11E-01	1,21E-01
1499	1910	9,49E-02	1,05E-01
1515	1910	9,49E-02	1,05E-01
1516	1910	9,49E-02	1,05E-01
1500	1910	9,49E-02	1,05E-01
1500	1911	7,85E-02	8,86E-02
1516	1911	7,85E-02	8,86E-02
1517	1911	7,85E-02	8,86E-02
1501	1911	7,85E-02	8,86E-02
1517	1912	6,22E-02	7,19E-02
1518	1912	6,22E-02	7,19E-02
1502	1912	6,22E-02	7,19E-02
1501	1912	6,22E-02	7,19E-02
1502	1913	4,59E-02	5,52E-02
1518	1913	4,59E-02	5,52E-02
1503	1913	4,59E-02	5,52E-02
1519	1913	4,59E-02	5,52E-02
1519	1914	3,02E-02	3,82E-02
1520	1914	3,02E-02	3,82E-02
1504	1914	3,02E-02	3,82E-02
1503	1914	3,02E-02	3,82E-02
1521	1915	1,46E-02	2,22E-02
1505	1915	1,46E-02	2,22E-02
1520	1915	1,46E-02	2,22E-02
1504	1915	1,46E-02	2,22E-02
1507	1916	2,75E-01	2,80E-01
1523	1916	2,75E-01	2,80E-01
1506	1916	2,75E-01	2,80E-01
1522	1916	2,75E-01	2,80E-01
1508	1917	2,53E-01	2,54E-01
1524	1917	2,53E-01	2,54E-01
1507	1917	2,53E-01	2,54E-01
1523	1917	2,53E-01	2,54E-01
1508	1918	2,36E-01	2,38E-01
1524	1918	2,36E-01	2,38E-01
1525	1918	2,36E-01	2,38E-01
1509	1918	2,36E-01	2,38E-01
1526	1919	2,18E-01	2,22E-01
1525	1919	2,18E-01	2,22E-01
1510	1919	2,18E-01	2,22E-01
1509	1919	2,18E-01	2,22E-01
1526	1920	2,02E-01	2,06E-01
1527	1920	2,02E-01	2,06E-01
1511	1920	2,02E-01	2,06E-01
1510	1920	2,02E-01	2,06E-01
1512	1921	1,84E-01	1,89E-01
1528	1921	1,84E-01	1,89E-01
1527	1921	1,84E-01	1,89E-01
1511	1921	1,84E-01	1,89E-01
1512	1922	1,67E-01	1,72E-01
1528	1922	1,67E-01	1,72E-01
1513	1922	1,67E-01	1,72E-01
1529	1922	1,67E-01	1,72E-01
1530	1923	1,50E-01	1,55E-01
1514	1923	1,50E-01	1,55E-01
1529	1923	1,50E-01	1,55E-01
1513	1923	1,50E-01	1,55E-01
1530	1924	1,32E-01	1,37E-01
1531	1924	1,32E-01	1,37E-01
1515	1924	1,32E-01	1,37E-01
1514	1924	1,32E-01	1,37E-01
1531	1925	1,15E-01	1,20E-01
1516	1925	1,15E-01	1,20E-01
1532	1925	1,15E-01	1,20E-01
1515	1925	1,15E-01	1,20E-01
1533	1926	9,71E-02	1,02E-01
1516	1926	9,71E-02	1,02E-01
1517	1926	9,71E-02	1,02E-01
1532	1926	9,71E-02	1,02E-01
1533	1927	8,00E-02	8,51E-02
1517	1927	8,00E-02	8,51E-02
1534	1927	8,00E-02	8,51E-02
1518	1927	8,00E-02	8,51E-02
1518	1928	6,36E-02	6,83E-02
1519	1928	6,36E-02	6,83E-02
1534	1928	6,36E-02	6,83E-02
1535	1928	6,36E-02	6,83E-02
1535	1929	4,85E-02	5,27E-02
1519	1929	4,85E-02	5,27E-02
1520	1929	4,85E-02	5,27E-02
1536	1929	4,85E-02	5,27E-02
1536	1930	3,47E-02	4,05E-02
1521	1930	3,47E-02	4,05E-02
1520	1930	3,47E-02	4,05E-02
1537	1930	3,47E-02	4,05E-02
1539	1931	2,91E-01	2,90E-01
1523	1931	2,91E-01	2,90E-01
1538	1931	2,91E-01	2,90E-01
1522	1931	2,91E-01	2,90E-01
1524	1932	2,82E-01	2,81E-01
1540	1932	2,82E-01	2,81E-01
1523	1932	2,82E-01	2,81E-01
1539	1932	2,82E-01	2,81E-01
1524	1933	2,67E-01	2,67E-01
1540	1933	2,67E-01	2,67E-01
1525	1933	2,67E-01	2,67E-01
1541	1933	2,67E-01	2,67E-01
1525	1934	2,50E-01	2,50E-01
1541	1934	2,50E-01	2,50E-01
1542	1934	2,50E-01	2,50E-01
1526	1934	2,50E-01	2,50E-01
1527	1935	2,31E-01	2,31E-01
1526	1935	2,31E-01	2,31E-01
1543	1935	2,31E-01	2,31E-01
1542	1935	2,31E-01	2,31E-01
1528	1936	2,12E-01	2,12E-01
1543	1936	2,12E-01	2,12E-01
1544	1936	2,12E-01	2,12E-01
1527	1936	2,12E-01	2,12E-01
1545	1937	1,92E-01	1,93E-01
1528	1937	1,92E-01	1,93E-01
1544	1937	1,92E-01	1,93E-01
1529	1937	1,92E-01	1,93E-01
1529	1938	1,73E-01	1,73E-01
1545	1938	1,73E-01	1,73E-01
1546	1938	1,73E-01	1,73E-01
1530	1938	1,73E-01	1,73E-01
1531	1939	1,53E-01	1,53E-01
1530	1939	1,53E-01	1,53E-01
1547	1939	1,53E-01	1,53E-01
1546	1939	1,53E-01	1,53E-01
1532	1940	1,33E-01	1,34E-01
1547	1940	1,33E-01	1,34E-01
1548	1940	1,33E-01	1,34E-01
1531	1940	1,33E-01	1,34E-01
1548	1941	1,14E-01	1,14E-01
1532	1941	1,14E-01	1,14E-01
1549	1941	1,14E-01	1,14E-01
1533	1941	1,14E-01	1,14E-01
1533	1942	9,52E-02	9,56E-02
1549	1942	9,52E-02	9,56E-02
1550	1942	9,52E-02	9,56E-02
1534	1942	9,52E-02	9,56E-02
1535	1943	7,74E-02	7,79E-02
1551	1943	7,74E-02	7,79E-02
1550	1943	7,74E-02	7,79E-02
1534	1943	7,74E-02	7,79E-02
1551	1944	6,11E-02	6,29E-02
1552	1944	6,11E-02	6,29E-02
1535	1944	6,11E-02	6,29E-02
1536	1944	6,11E-02	6,29E-02
1537	1945	4,81E-02	5,42E-02
1553	1945	4,81E-02	5,42E-02
1552	1945	4,81E-02	5,42E-02
1536	1945	4,81E-02	5,42E-02
1555	1946	3,10E-01	3,14E-01
1538	1946	3,10E-01	3,14E-01
1554	1946	3,10E-01	3,14E-01
1539	1946	3,10E-01	3,14E-01
1555	1947	2,95E-01	3,01E-01
1540	1947	2,95E-01	3,01E-01
1556	1947	2,95E-01	3,01E-01
1539	1947	2,95E-01	3,01E-01
1541	1948	2,76E-01	2,81E-01
1557	1948	2,76E-01	2,81E-01
1540	1948	2,76E-01	2,81E-01
1556	1948	2,76E-01	2,81E-01
1541	1949	2,56E-01	2,59E-01
1557	1949	2,56E-01	2,59E-01
1558	1949	2,56E-01	2,59E-01
1542	1949	2,56E-01	2,59E-01
1542	1950	2,34E-01	2,37E-01
1543	1950	2,34E-01	2,37E-01
1559	1950	2,34E-01	2,37E-01
1558	1950	2,34E-01	2,37E-01
1543	1951	2,13E-01	2,16E-01
1559	1951	2,13E-01	2,16E-01
1560	1951	2,13E-01	2,16E-01
1544	1951	2,13E-01	2,16E-01
1545	1952	1,92E-01	1,95E-01
1561	1952	1,92E-01	1,95E-01
1544	1952	1,92E-01	1,95E-01
1560	1952	1,92E-01	1,95E-01
1561	1953	1,71E-01	1,74E-01
1545	1953	1,71E-01	1,74E-01
1562	1953	1,71E-01	1,74E-01
1546	1953	1,71E-01	1,74E-01
1547	1954	1,50E-01	1,53E-01
1563	1954	1,50E-01	1,53E-01
1546	1954	1,50E-01	1,53E-01
1562	1954	1,50E-01	1,53E-01
1547	1955	1,30E-01	1,33E-01
1564	1955	1,30E-01	1,33E-01
1548	1955	1,30E-01	1,33E-01
1563	1955	1,30E-01	1,33E-01
1565	1956	1,09E-01	1,12E-01
1548	1956	1,09E-01	1,12E-01
1549	1956	1,09E-01	1,12E-01
1564	1956	1,09E-01	1,12E-01
1565	1957	8,93E-02	9,22E-02
1549	1957	8,93E-02	9,22E-02
1566	1957	8,93E-02	9,22E-02
1550	1957	8,93E-02	9,22E-02
1566	1958	6,97E-02	7,32E-02
1551	1958	6,97E-02	7,32E-02
1550	1958	6,97E-02	7,32E-02
1567	1958	6,97E-02	7,32E-02
1552	1959	5,12E-02	5,67E-02
1568	1959	5,12E-02	5,67E-02
1551	1959	5,12E-02	5,67E-02
1567	1959	5,12E-02	5,67E-02
1569	1960	3,81E-02	4,30E-02
1552	1960	3,81E-02	4,30E-02
1553	1960	3,81E-02	4,30E-02
1568	1960	3,81E-02	4,30E-02
1554	1961	3,24E-01	3,33E-01
1555	1961	3,24E-01	3,33E-01
1571	1961	3,24E-01	3,33E-01
1570	1961	3,24E-01	3,33E-01
1556	1962	3,04E-01	3,12E-01
1572	1962	3,04E-01	3,12E-01
1555	1962	3,04E-01	3,12E-01
1571	1962	3,04E-01	3,12E-01
1557	1963	2,80E-01	2,88E-01
1572	1963	2,80E-01	2,88E-01
1573	1963	2,80E-01	2,88E-01
1556	1963	2,80E-01	2,88E-01
1574	1964	2,56E-01	2,63E-01
1557	1964	2,56E-01	2,63E-01
1573	1964	2,56E-01	2,63E-01
1558	1964	2,56E-01	2,63E-01
1574	1965	2,34E-01	2,40E-01
1558	1965	2,34E-01	2,40E-01
1559	1965	2,34E-01	2,40E-01
1575	1965	2,34E-01	2,40E-01
1575	1966	2,12E-01	2,18E-01
1559	1966	2,12E-01	2,18E-01
1560	1966	2,12E-01	2,18E-01
1576	1966	2,12E-01	2,18E-01
1561	1967	1,90E-01	1,96E-01
1577	1967	1,90E-01	1,96E-01
1576	1967	1,90E-01	1,96E-01
1560	1967	1,90E-01	1,96E-01
1561	1968	1,69E-01	1,75E-01
1562	1968	1,69E-01	1,75E-01
1577	1968	1,69E-01	1,75E-01
1578	1968	1,69E-01	1,75E-01
1562	1969	1,48E-01	1,53E-01
1563	1969	1,48E-01	1,53E-01
1578	1969	1,48E-01	1,53E-01
1579	1969	1,48E-01	1,53E-01
1563	1970	1,26E-01	1,32E-01
1580	1970	1,26E-01	1,32E-01
1564	1970	1,26E-01	1,32E-01
1579	1970	1,26E-01	1,32E-01
1580	1971	1,05E-01	1,11E-01
1564	1971	1,05E-01	1,11E-01
1565	1971	1,05E-01	1,11E-01
1581	1971	1,05E-01	1,11E-01
1582	1972	8,46E-02	9,02E-02
1565	1972	8,46E-02	9,02E-02
1566	1972	8,46E-02	9,02E-02
1581	1972	8,46E-02	9,02E-02
1582	1973	6,38E-02	7,01E-02
1567	1973	6,38E-02	7,01E-02
1566	1973	6,38E-02	7,01E-02
1583	1973	6,38E-02	7,01E-02
1568	1974	4,39E-02	5,13E-02
1567	1974	4,39E-02	5,13E-02
1584	1974	4,39E-02	5,13E-02
1583	1974	4,39E-02	5,13E-02
1584	1975	2,80E-02	3,27E-02
1568	1975	2,80E-02	3,27E-02
1569	1975	2,80E-02	3,27E-02
1585	1975	2,80E-02	3,27E-02
1586	1976	3,36E-01	3,40E-01
1587	1976	3,36E-01	3,40E-01
1570	1976	3,36E-01	3,40E-01
1571	1976	3,36E-01	3,40E-01
1571	1977	3,05E-01	3,14E-01
1588	1977	3,05E-01	3,14E-01
1587	1977	3,05E-01	3,14E-01
1572	1977	3,05E-01	3,14E-01
1588	1978	2,76E-01	2,86E-01
1589	1978	2,76E-01	2,86E-01
1572	1978	2,76E-01	2,86E-01
1573	1978	2,76E-01	2,86E-01
1590	1979	2,52E-01	2,62E-01
1589	1979	2,52E-01	2,62E-01
1573	1979	2,52E-01	2,62E-01
1574	1979	2,52E-01	2,62E-01
1591	1980	2,30E-01	2,39E-01
1575	1980	2,30E-01	2,39E-01
1590	1980	2,30E-01	2,39E-01
1574	1980	2,30E-01	2,39E-01
1576	1981	2,09E-01	2,17E-01
1575	1981	2,09E-01	2,17E-01
1592	1981	2,09E-01	2,17E-01
1591	1981	2,09E-01	2,17E-01
1592	1982	1,87E-01	1,96E-01
1577	1982	1,87E-01	1,96E-01
1576	1982	1,87E-01	1,96E-01
1593	1982	1,87E-01	1,96E-01
1578	1983	1,66E-01	1,75E-01
1593	1983	1,66E-01	1,75E-01
1594	1983	1,66E-01	1,75E-01
1577	1983	1,66E-01	1,75E-01
1595	1984	1,45E-01	1,53E-01
1594	1984	1,45E-01	1,53E-01
1579	1984	1,45E-01	1,53E-01
1578	1984	1,45E-01	1,53E-01
1579	1985	1,23E-01	1,32E-01
1595	1985	1,23E-01	1,32E-01
1580	1985	1,23E-01	1,32E-01
1596	1985	1,23E-01	1,32E-01
1581	1986	1,02E-01	1,11E-01
1597	1986	1,02E-01	1,11E-01
1596	1986	1,02E-01	1,11E-01
1580	1986	1,02E-01	1,11E-01
1597	1987	8,11E-02	8,97E-02
1582	1987	8,11E-02	8,97E-02
1598	1987	8,11E-02	8,97E-02
1581	1987	8,11E-02	8,97E-02
1582	1988	6,01E-02	6,88E-02
1599	1988	6,01E-02	6,88E-02
1583	1988	6,01E-02	6,88E-02
1598	1988	6,01E-02	6,88E-02
1600	1989	3,94E-02	4,78E-02
1584	1989	3,94E-02	4,78E-02
1599	1989	3,94E-02	4,78E-02
1583	1989	3,94E-02	4,78E-02
1585	1990	1,94E-02	2,88E-02
1601	1990	1,94E-02	2,88E-02
1584	1990	1,94E-02	2,88E-02
1600	1990	1,94E-02	2,88E-02
1602	1991	3,35E-01	3,42E-01
1603	1991	3,35E-01	3,42E-01
1586	1991	3,35E-01	3,42E-01
1587	1991	3,35E-01	3,42E-01
1588	1992	2,95E-01	3,05E-01
1604	1992	2,95E-01	3,05E-01
1603	1992	2,95E-01	3,05E-01
1587	1992	2,95E-01	3,05E-01
1588	1993	2,67E-01	2,78E-01
1604	1993	2,67E-01	2,78E-01
1605	1993	2,67E-01	2,78E-01
1589	1993	2,67E-01	2,78E-01
1605	1994	2,45E-01	2,56E-01
1590	1994	2,45E-01	2,56E-01
1589	1994	2,45E-01	2,56E-01
1606	1994	2,45E-01	2,56E-01
1606	1995	2,24E-01	2,35E-01
1590	1995	2,24E-01	2,35E-01
1591	1995	2,24E-01	2,35E-01
1607	1995	2,24E-01	2,35E-01
1592	1996	2,04E-01	2,15E-01
1608	1996	2,04E-01	2,15E-01
1591	1996	2,04E-01	2,15E-01
1607	1996	2,04E-01	2,15E-01
1593	1997	1,83E-01	1,95E-01
1609	1997	1,83E-01	1,95E-01
1592	1997	1,83E-01	1,95E-01
1608	1997	1,83E-01	1,95E-01
1594	1998	1,63E-01	1,74E-01
1593	1998	1,63E-01	1,74E-01
1609	1998	1,63E-01	1,74E-01
1610	1998	1,63E-01	1,74E-01
1595	1999	1,42E-01	1,53E-01
1610	1999	1,42E-01	1,53E-01
1611	1999	1,42E-01	1,53E-01
1594	1999	1,42E-01	1,53E-01
1612	2000	1,21E-01	1,33E-01
1595	2000	1,21E-01	1,33E-01
1596	2000	1,21E-01	1,33E-01
1611	2000	1,21E-01	1,33E-01
1596	2001	1,00E-01	1,12E-01
1613	2001	1,00E-01	1,12E-01
1612	2001	1,00E-01	1,12E-01
1597	2001	1,00E-01	1,12E-01
1597	2002	7,93E-02	9,07E-02
1598	2002	7,93E-02	9,07E-02
1613	2002	7,93E-02	9,07E-02
1614	2002	7,93E-02	9,07E-02
1598	2003	5,86E-02	6,96E-02
1615	2003	5,86E-02	6,96E-02
1599	2003	5,86E-02	6,96E-02
1614	2003	5,86E-02	6,96E-02
1600	2004	3,85E-02	4,83E-02
1616	2004	3,85E-02	4,83E-02
1615	2004	3,85E-02	4,83E-02
1599	2004	3,85E-02	4,83E-02
1601	2005	1,88E-02	2,84E-02
1617	2005	1,88E-02	2,84E-02
1600	2005	1,88E-02	2,84E-02
1616	2005	1,88E-02	2,84E-02
1689	2042	3,40E-01	3,43E-01
1674	2042	3,40E-01	3,43E-01
1690	2042	3,40E-01	3,43E-01
1673	2042	3,40E-01	3,43E-01
1690	2043	3,24E-01	3,26E-01
1691	2043	3,24E-01	3,26E-01
1674	2043	3,24E-01	3,26E-01
1675	2043	3,24E-01	3,26E-01
1692	2044	3,04E-01	3,06E-01
1675	2044	3,04E-01	3,06E-01
1676	2044	3,04E-01	3,06E-01
1691	2044	3,04E-01	3,06E-01
1676	2045	2,82E-01	2,84E-01
1677	2045	2,82E-01	2,84E-01
1693	2045	2,82E-01	2,84E-01
1692	2045	2,82E-01	2,84E-01
1677	2046	2,59E-01	2,62E-01
1678	2046	2,59E-01	2,62E-01
1694	2046	2,59E-01	2,62E-01
1693	2046	2,59E-01	2,62E-01
1694	2047	2,36E-01	2,39E-01
1695	2047	2,36E-01	2,39E-01
1678	2047	2,36E-01	2,39E-01
1679	2047	2,36E-01	2,39E-01
1680	2048	2,13E-01	2,16E-01
1696	2048	2,13E-01	2,16E-01
1695	2048	2,13E-01	2,16E-01
1679	2048	2,13E-01	2,16E-01
1681	2049	1,90E-01	1,93E-01
1696	2049	1,90E-01	1,93E-01
1697	2049	1,90E-01	1,93E-01
1680	2049	1,90E-01	1,93E-01
1697	2050	1,67E-01	1,69E-01
1682	2050	1,67E-01	1,69E-01
1698	2050	1,67E-01	1,69E-01
1681	2050	1,67E-01	1,69E-01
1699	2051	1,44E-01	1,46E-01
1682	2051	1,44E-01	1,46E-01
1683	2051	1,44E-01	1,46E-01
1698	2051	1,44E-01	1,46E-01
1684	2052	1,21E-01	1,23E-01
1700	2052	1,21E-01	1,23E-01
1683	2052	1,21E-01	1,23E-01
1699	2052	1,21E-01	1,23E-01
1700	2053	9,81E-02	1,01E-01
1701	2053	9,81E-02	1,01E-01
1685	2053	9,81E-02	1,01E-01
1684	2053	9,81E-02	1,01E-01
1702	2054	7,58E-02	7,83E-02
1701	2054	7,58E-02	7,83E-02
1686	2054	7,58E-02	7,83E-02
1685	2054	7,58E-02	7,83E-02
1703	2055	5,44E-02	5,72E-02
1687	2055	5,44E-02	5,72E-02
1686	2055	5,44E-02	5,72E-02
1702	2055	5,44E-02	5,72E-02
1704	2056	3,41E-02	3,87E-02
1687	2056	3,41E-02	3,87E-02
1703	2056	3,41E-02	3,87E-02
1688	2056	3,41E-02	3,87E-02
1706	2057	3,63E-01	3,66E-01
1705	2057	3,63E-01	3,66E-01
1689	2057	3,63E-01	3,66E-01
1690	2057	3,63E-01	3,66E-01
1707	2058	3,48E-01	3,50E-01
1706	2058	3,48E-01	3,50E-01
1691	2058	3,48E-01	3,50E-01
1690	2058	3,48E-01	3,50E-01
1692	2059	3,26E-01	3,27E-01
1691	2059	3,26E-01	3,27E-01
1708	2059	3,26E-01	3,27E-01
1707	2059	3,26E-01	3,27E-01
1709	2060	3,02E-01	3,03E-01
1708	2060	3,02E-01	3,03E-01
1693	2060	3,02E-01	3,03E-01
1692	2060	3,02E-01	3,03E-01
1694	2061	2,77E-01	2,79E-01
1693	2061	2,77E-01	2,79E-01
1710	2061	2,77E-01	2,79E-01
1709	2061	2,77E-01	2,79E-01
1694	2062	2,53E-01	2,54E-01
1711	2062	2,53E-01	2,54E-01
1710	2062	2,53E-01	2,54E-01
1695	2062	2,53E-01	2,54E-01
1711	2063	2,28E-01	2,30E-01
1696	2063	2,28E-01	2,30E-01
1712	2063	2,28E-01	2,30E-01
1695	2063	2,28E-01	2,30E-01
1696	2064	2,04E-01	2,05E-01
1697	2064	2,04E-01	2,05E-01
1712	2064	2,04E-01	2,05E-01
1713	2064	2,04E-01	2,05E-01
1713	2065	1,79E-01	1,81E-01
1697	2065	1,79E-01	1,81E-01
1698	2065	1,79E-01	1,81E-01
1714	2065	1,79E-01	1,81E-01
1698	2066	1,55E-01	1,56E-01
1714	2066	1,55E-01	1,56E-01
1715	2066	1,55E-01	1,56E-01
1699	2066	1,55E-01	1,56E-01
1699	2067	1,30E-01	1,32E-01
1715	2067	1,30E-01	1,32E-01
1700	2067	1,30E-01	1,32E-01
1716	2067	1,30E-01	1,32E-01
1716	2068	1,06E-01	1,08E-01
1717	2068	1,06E-01	1,08E-01
1700	2068	1,06E-01	1,08E-01
1701	2068	1,06E-01	1,08E-01
1701	2069	8,32E-02	8,45E-02
1702	2069	8,32E-02	8,45E-02
1717	2069	8,32E-02	8,45E-02
1718	2069	8,32E-02	8,45E-02
1718	2070	6,12E-02	6,33E-02
1703	2070	6,12E-02	6,33E-02
1702	2070	6,12E-02	6,33E-02
1719	2070	6,12E-02	6,33E-02
1720	2071	4,27E-02	4,83E-02
1704	2071	4,27E-02	4,83E-02
1719	2071	4,27E-02	4,83E-02
1703	2071	4,27E-02	4,83E-02
1705	2072	3,84E-01	3,89E-01
1706	2072	3,84E-01	3,89E-01
1721	2072	3,84E-01	3,89E-01
1722	2072	3,84E-01	3,89E-01
1722	2073	3,57E-01	3,65E-01
1706	2073	3,57E-01	3,65E-01
1707	2073	3,57E-01	3,65E-01
1723	2073	3,57E-01	3,65E-01
1707	2074	3,27E-01	3,35E-01
1723	2074	3,27E-01	3,35E-01
1708	2074	3,27E-01	3,35E-01
1724	2074	3,27E-01	3,35E-01
1709	2075	3,01E-01	3,08E-01
1725	2075	3,01E-01	3,08E-01
1724	2075	3,01E-01	3,08E-01
1708	2075	3,01E-01	3,08E-01
1709	2076	2,75E-01	2,82E-01
1710	2076	2,75E-01	2,82E-01
1726	2076	2,75E-01	2,82E-01
1725	2076	2,75E-01	2,82E-01
1710	2077	2,50E-01	2,57E-01
1726	2077	2,50E-01	2,57E-01
1711	2077	2,50E-01	2,57E-01
1727	2077	2,50E-01	2,57E-01
1727	2078	2,25E-01	2,32E-01
1728	2078	2,25E-01	2,32E-01
1711	2078	2,25E-01	2,32E-01
1712	2078	2,25E-01	2,32E-01
1713	2079	1,99E-01	2,06E-01
1728	2079	1,99E-01	2,06E-01
1729	2079	1,99E-01	2,06E-01
1712	2079	1,99E-01	2,06E-01
1729	2080	1,74E-01	1,81E-01
1714	2080	1,74E-01	1,81E-01
1730	2080	1,74E-01	1,81E-01
1713	2080	1,74E-01	1,81E-01
1714	2081	1,49E-01	1,56E-01
1715	2081	1,49E-01	1,56E-01
1731	2081	1,49E-01	1,56E-01
1730	2081	1,49E-01	1,56E-01
1715	2082	1,24E-01	1,31E-01
1716	2082	1,24E-01	1,31E-01
1731	2082	1,24E-01	1,31E-01
1732	2082	1,24E-01	1,31E-01
1717	2083	9,96E-02	1,06E-01
1716	2083	9,96E-02	1,06E-01
1733	2083	9,96E-02	1,06E-01
1732	2083	9,96E-02	1,06E-01
1717	2084	7,49E-02	8,15E-02
1734	2084	7,49E-02	8,15E-02
1718	2084	7,49E-02	8,15E-02
1733	2084	7,49E-02	8,15E-02
1718	2085	5,07E-02	5,83E-02
1735	2085	5,07E-02	5,83E-02
1719	2085	5,07E-02	5,83E-02
1734	2085	5,07E-02	5,83E-02
1719	2086	3,01E-02	3,86E-02
1736	2086	3,01E-02	3,86E-02
1720	2086	3,01E-02	3,86E-02
1735	2086	3,01E-02	3,86E-02
1721	2087	3,86E-01	3,96E-01
1737	2087	3,86E-01	3,96E-01
1738	2087	3,86E-01	3,96E-01
1722	2087	3,86E-01	3,96E-01
1738	2088	3,48E-01	3,61E-01
1739	2088	3,48E-01	3,61E-01
1722	2088	3,48E-01	3,61E-01
1723	2088	3,48E-01	3,61E-01
1723	2089	3,20E-01	3,33E-01
1740	2089	3,20E-01	3,33E-01
1724	2089	3,20E-01	3,33E-01
1739	2089	3,20E-01	3,33E-01
1741	2090	2,95E-01	3,08E-01
1740	2090	2,95E-01	3,08E-01
1724	2090	2,95E-01	3,08E-01
1725	2090	2,95E-01	3,08E-01
1725	2091	2,70E-01	2,83E-01
1741	2091	2,70E-01	2,83E-01
1742	2091	2,70E-01	2,83E-01
1726	2091	2,70E-01	2,83E-01
1742	2092	2,45E-01	2,58E-01
1743	2092	2,45E-01	2,58E-01
1726	2092	2,45E-01	2,58E-01
1727	2092	2,45E-01	2,58E-01
1743	2093	2,20E-01	2,33E-01
1728	2093	2,20E-01	2,33E-01
1727	2093	2,20E-01	2,33E-01
1744	2093	2,20E-01	2,33E-01
1728	2094	1,95E-01	2,08E-01
1745	2094	1,95E-01	2,08E-01
1744	2094	1,95E-01	2,08E-01
1729	2094	1,95E-01	2,08E-01
1729	2095	1,70E-01	1,83E-01
1745	2095	1,70E-01	1,83E-01
1730	2095	1,70E-01	1,83E-01
1746	2095	1,70E-01	1,83E-01
1731	2096	1,45E-01	1,58E-01
1747	2096	1,45E-01	1,58E-01
1746	2096	1,45E-01	1,58E-01
1730	2096	1,45E-01	1,58E-01
1731	2097	1,20E-01	1,33E-01
1732	2097	1,20E-01	1,33E-01
1748	2097	1,20E-01	1,33E-01
1747	2097	1,20E-01	1,33E-01
1733	2098	9,50E-02	1,08E-01
1748	2098	9,50E-02	1,08E-01
1749	2098	9,50E-02	1,08E-01
1732	2098	9,50E-02	1,08E-01
1734	2099	6,99E-02	8,25E-02
1750	2099	6,99E-02	8,25E-02
1749	2099	6,99E-02	8,25E-02
1733	2099	6,99E-02	8,25E-02
1750	2100	4,53E-02	5,76E-02
1751	2100	4,53E-02	5,76E-02
1735	2100	4,53E-02	5,76E-02
1734	2100	4,53E-02	5,76E-02
1751	2101	2,25E-02	3,21E-02
1752	2101	2,25E-02	3,21E-02
1735	2101	2,25E-02	3,21E-02
1736	2101	2,25E-02	3,21E-02
2369	2543	2,36E-01	2,52E-01
2370	2543	2,36E-01	2,52E-01
2386	2543	2,36E-01	2,52E-01
2385	2543	2,36E-01	2,52E-01
2387	2544	2,08E-01	2,26E-01
2370	2544	2,08E-01	2,26E-01
2386	2544	2,08E-01	2,26E-01
2371	2544	2,08E-01	2,26E-01
2371	2545	1,92E-01	2,10E-01
2372	2545	1,92E-01	2,10E-01
2388	2545	1,92E-01	2,10E-01
2387	2545	1,92E-01	2,10E-01
2372	2546	1,78E-01	1,95E-01
2389	2546	1,78E-01	1,95E-01
2373	2546	1,78E-01	1,95E-01
2388	2546	1,78E-01	1,95E-01
2389	2547	1,63E-01	1,80E-01
2374	2547	1,63E-01	1,80E-01
2373	2547	1,63E-01	1,80E-01
2390	2547	1,63E-01	1,80E-01
2375	2548	1,48E-01	1,65E-01
2391	2548	1,48E-01	1,65E-01
2374	2548	1,48E-01	1,65E-01
2390	2548	1,48E-01	1,65E-01
2392	2549	1,33E-01	1,50E-01
2391	2549	1,33E-01	1,50E-01
2375	2549	1,33E-01	1,50E-01
2376	2549	1,33E-01	1,50E-01
2376	2550	1,19E-01	1,36E-01
2377	2550	1,19E-01	1,36E-01
2392	2550	1,19E-01	1,36E-01
2393	2550	1,19E-01	1,36E-01
2378	2551	1,04E-01	1,21E-01
2393	2551	1,04E-01	1,21E-01
2394	2551	1,04E-01	1,21E-01
2377	2551	1,04E-01	1,21E-01
2378	2552	9,02E-02	1,07E-01
2394	2552	9,02E-02	1,07E-01
2395	2552	9,02E-02	1,07E-01
2379	2552	9,02E-02	1,07E-01
2396	2553	7,65E-02	9,28E-02
2379	2553	7,65E-02	9,28E-02
2380	2553	7,65E-02	9,28E-02
2395	2553	7,65E-02	9,28E-02
2380	2554	6,36E-02	7,92E-02
2381	2554	6,36E-02	7,92E-02
2396	2554	6,36E-02	7,92E-02
2397	2554	6,36E-02	7,92E-02
2398	2555	5,21E-02	6,62E-02
2397	2555	5,21E-02	6,62E-02
2382	2555	5,21E-02	6,62E-02
2381	2555	5,21E-02	6,62E-02
2383	2556	4,37E-02	5,51E-02
2398	2556	4,37E-02	5,51E-02
2399	2556	4,37E-02	5,51E-02
2382	2556	4,37E-02	5,51E-02
2399	2557	4,03E-02	4,59E-02
2400	2557	4,03E-02	4,59E-02
2383	2557	4,03E-02	4,59E-02
2384	2557	4,03E-02	4,59E-02
2385	2558	2,23E-01	2,12E-01
2402	2558	2,23E-01	2,12E-01
2401	2558	2,23E-01	2,12E-01
2386	2558	2,23E-01	2,12E-01
2403	2559	2,23E-01	2,13E-01
2402	2559	2,23E-01	2,13E-01
2386	2559	2,23E-01	2,13E-01
2387	2559	2,23E-01	2,13E-01
2388	2560	2,07E-01	1,98E-01
2387	2560	2,07E-01	1,98E-01
2403	2560	2,07E-01	1,98E-01
2404	2560	2,07E-01	1,98E-01
2388	2561	1,92E-01	1,83E-01
2404	2561	1,92E-01	1,83E-01
2389	2561	1,92E-01	1,83E-01
2405	2561	1,92E-01	1,83E-01
2406	2562	1,78E-01	1,69E-01
2405	2562	1,78E-01	1,69E-01
2389	2562	1,78E-01	1,69E-01
2390	2562	1,78E-01	1,69E-01
2390	2563	1,63E-01	1,54E-01
2407	2563	1,63E-01	1,54E-01
2406	2563	1,63E-01	1,54E-01
2391	2563	1,63E-01	1,54E-01
2408	2564	1,49E-01	1,40E-01
2391	2564	1,49E-01	1,40E-01
2407	2564	1,49E-01	1,40E-01
2392	2564	1,49E-01	1,40E-01
2408	2565	1,35E-01	1,26E-01
2409	2565	1,35E-01	1,26E-01
2392	2565	1,35E-01	1,26E-01
2393	2565	1,35E-01	1,26E-01
2410	2566	1,20E-01	1,12E-01
2409	2566	1,20E-01	1,12E-01
2393	2566	1,20E-01	1,12E-01
2394	2566	1,20E-01	1,12E-01
2411	2567	1,06E-01	9,84E-02
2410	2567	1,06E-01	9,84E-02
2395	2567	1,06E-01	9,84E-02
2394	2567	1,06E-01	9,84E-02
2411	2568	9,30E-02	8,53E-02
2412	2568	9,30E-02	8,53E-02
2396	2568	9,30E-02	8,53E-02
2395	2568	9,30E-02	8,53E-02
2413	2569	8,01E-02	7,32E-02
2396	2569	8,01E-02	7,32E-02
2412	2569	8,01E-02	7,32E-02
2397	2569	8,01E-02	7,32E-02
2413	2570	6,84E-02	6,22E-02
2414	2570	6,84E-02	6,22E-02
2397	2570	6,84E-02	6,22E-02
2398	2570	6,84E-02	6,22E-02
2415	2571	5,84E-02	5,40E-02
2414	2571	5,84E-02	5,40E-02
2399	2571	5,84E-02	5,40E-02
2398	2571	5,84E-02	5,40E-02
2415	2572	5,14E-02	4,99E-02
2416	2572	5,14E-02	4,99E-02
2399	2572	5,14E-02	4,99E-02
2400	2572	5,14E-02	4,99E-02
2402	2573	1,93E-01	1,97E-01
2417	2573	1,93E-01	1,97E-01
2418	2573	1,93E-01	1,97E-01
2401	2573	1,93E-01	1,97E-01
2418	2574	1,74E-01	1,72E-01
2403	2574	1,74E-01	1,72E-01
2402	2574	1,74E-01	1,72E-01
2419	2574	1,74E-01	1,72E-01
2403	2575	1,58E-01	1,54E-01
2420	2575	1,58E-01	1,54E-01
2404	2575	1,58E-01	1,54E-01
2419	2575	1,58E-01	1,54E-01
2421	2576	1,44E-01	1,41E-01
2405	2576	1,44E-01	1,41E-01
2404	2576	1,44E-01	1,41E-01
2420	2576	1,44E-01	1,41E-01
2421	2577	1,33E-01	1,30E-01
2406	2577	1,33E-01	1,30E-01
2422	2577	1,33E-01	1,30E-01
2405	2577	1,33E-01	1,30E-01
2406	2578	1,23E-01	1,19E-01
2423	2578	1,23E-01	1,19E-01
2422	2578	1,23E-01	1,19E-01
2407	2578	1,23E-01	1,19E-01
2407	2579	1,12E-01	1,09E-01
2408	2579	1,12E-01	1,09E-01
2424	2579	1,12E-01	1,09E-01
2423	2579	1,12E-01	1,09E-01
2408	2580	1,02E-01	9,89E-02
2424	2580	1,02E-01	9,89E-02
2409	2580	1,02E-01	9,89E-02
2425	2580	1,02E-01	9,89E-02
2409	2581	9,22E-02	8,90E-02
2426	2581	9,22E-02	8,90E-02
2410	2581	9,22E-02	8,90E-02
2425	2581	9,22E-02	8,90E-02
2427	2582	8,26E-02	7,94E-02
2426	2582	8,26E-02	7,94E-02
2411	2582	8,26E-02	7,94E-02
2410	2582	8,26E-02	7,94E-02
2411	2583	7,34E-02	7,01E-02
2412	2583	7,34E-02	7,01E-02
2428	2583	7,34E-02	7,01E-02
2427	2583	7,34E-02	7,01E-02
2412	2584	6,49E-02	6,17E-02
2428	2584	6,49E-02	6,17E-02
2413	2584	6,49E-02	6,17E-02
2429	2584	6,49E-02	6,17E-02
2430	2585	5,73E-02	5,42E-02
2429	2585	5,73E-02	5,42E-02
2414	2585	5,73E-02	5,42E-02
2413	2585	5,73E-02	5,42E-02
2415	2586	5,08E-02	4,89E-02
2414	2586	5,08E-02	4,89E-02
2431	2586	5,08E-02	4,89E-02
2430	2586	5,08E-02	4,89E-02
2416	2587	4,39E-02	4,56E-02
2415	2587	4,39E-02	4,56E-02
2431	2587	4,39E-02	4,56E-02
2432	2587	4,39E-02	4,56E-02
2433	2588	1,77E-01	1,89E-01
2434	2588	1,77E-01	1,89E-01
2418	2588	1,77E-01	1,89E-01
2417	2588	1,77E-01	1,89E-01
2418	2589	1,26E-01	1,40E-01
2434	2589	1,26E-01	1,40E-01
2419	2589	1,26E-01	1,40E-01
2435	2589	1,26E-01	1,40E-01
2435	2590	1,03E-01	1,17E-01
2420	2590	1,03E-01	1,17E-01
2419	2590	1,03E-01	1,17E-01
2436	2590	1,03E-01	1,17E-01
2421	2591	9,17E-02	1,05E-01
2436	2591	9,17E-02	1,05E-01
2420	2591	9,17E-02	1,05E-01
2437	2591	9,17E-02	1,05E-01
2438	2592	8,34E-02	9,68E-02
2437	2592	8,34E-02	9,68E-02
2421	2592	8,34E-02	9,68E-02
2422	2592	8,34E-02	9,68E-02
2438	2593	7,68E-02	8,99E-02
2422	2593	7,68E-02	8,99E-02
2423	2593	7,68E-02	8,99E-02
2439	2593	7,68E-02	8,99E-02
2423	2594	7,05E-02	8,33E-02
2424	2594	7,05E-02	8,33E-02
2440	2594	7,05E-02	8,33E-02
2439	2594	7,05E-02	8,33E-02
2424	2595	6,45E-02	7,70E-02
2425	2595	6,45E-02	7,70E-02
2441	2595	6,45E-02	7,70E-02
2440	2595	6,45E-02	7,70E-02
2426	2596	5,86E-02	7,06E-02
2425	2596	5,86E-02	7,06E-02
2441	2596	5,86E-02	7,06E-02
2442	2596	5,86E-02	7,06E-02
2427	2597	5,32E-02	6,45E-02
2426	2597	5,32E-02	6,45E-02
2442	2597	5,32E-02	6,45E-02
2443	2597	5,32E-02	6,45E-02
2428	2598	4,82E-02	5,86E-02
2444	2598	4,82E-02	5,86E-02
2443	2598	4,82E-02	5,86E-02
2427	2598	4,82E-02	5,86E-02
2428	2599	4,41E-02	5,31E-02
2444	2599	4,41E-02	5,31E-02
2429	2599	4,41E-02	5,31E-02
2445	2599	4,41E-02	5,31E-02
2430	2600	4,07E-02	4,80E-02
2445	2600	4,07E-02	4,80E-02
2429	2600	4,07E-02	4,80E-02
2446	2600	4,07E-02	4,80E-02
2430	2601	3,82E-02	4,41E-02
2446	2601	3,82E-02	4,41E-02
2447	2601	3,82E-02	4,41E-02
2431	2601	3,82E-02	4,41E-02
2432	2602	3,71E-02	4,13E-02
2448	2602	3,71E-02	4,13E-02
2447	2602	3,71E-02	4,13E-02
2431	2602	3,71E-02	4,13E-02
2449	2603	1,62E-01	1,63E-01
2433	2603	1,62E-01	1,63E-01
2450	2603	1,62E-01	1,63E-01
2434	2603	1,62E-01	1,63E-01
2451	2604	1,28E-01	1,34E-01
2450	2604	1,28E-01	1,34E-01
2435	2604	1,28E-01	1,34E-01
2434	2604	1,28E-01	1,34E-01
2451	2605	1,07E-01	1,16E-01
2436	2605	1,07E-01	1,16E-01
2452	2605	1,07E-01	1,16E-01
2435	2605	1,07E-01	1,16E-01
2436	2606	9,66E-02	1,06E-01
2437	2606	9,66E-02	1,06E-01
2453	2606	9,66E-02	1,06E-01
2452	2606	9,66E-02	1,06E-01
2438	2607	8,91E-02	9,80E-02
2454	2607	8,91E-02	9,80E-02
2437	2607	8,91E-02	9,80E-02
2453	2607	8,91E-02	9,80E-02
2454	2608	8,22E-02	9,08E-02
2438	2608	8,22E-02	9,08E-02
2439	2608	8,22E-02	9,08E-02
2455	2608	8,22E-02	9,08E-02
2455	2609	7,58E-02	8,40E-02
2456	2609	7,58E-02	8,40E-02
2439	2609	7,58E-02	8,40E-02
2440	2609	7,58E-02	8,40E-02
2440	2610	6,95E-02	7,75E-02
2441	2610	6,95E-02	7,75E-02
2456	2610	6,95E-02	7,75E-02
2457	2610	6,95E-02	7,75E-02
2458	2611	6,37E-02	7,13E-02
2441	2611	6,37E-02	7,13E-02
2442	2611	6,37E-02	7,13E-02
2457	2611	6,37E-02	7,13E-02
2458	2612	5,82E-02	6,53E-02
2442	2612	5,82E-02	6,53E-02
2459	2612	5,82E-02	6,53E-02
2443	2612	5,82E-02	6,53E-02
2459	2613	5,33E-02	5,98E-02
2460	2613	5,33E-02	5,98E-02
2443	2613	5,33E-02	5,98E-02
2444	2613	5,33E-02	5,98E-02
2460	2614	4,92E-02	5,46E-02
2445	2614	4,92E-02	5,46E-02
2461	2614	4,92E-02	5,46E-02
2444	2614	4,92E-02	5,46E-02
2446	2615	4,59E-02	5,01E-02
2461	2615	4,59E-02	5,01E-02
2462	2615	4,59E-02	5,01E-02
2445	2615	4,59E-02	5,01E-02
2446	2616	4,41E-02	4,61E-02
2462	2616	4,41E-02	4,61E-02
2447	2616	4,41E-02	4,61E-02
2463	2616	4,41E-02	4,61E-02
2464	2617	4,44E-02	4,20E-02
2447	2617	4,44E-02	4,20E-02
2448	2617	4,44E-02	4,20E-02
2463	2617	4,44E-02	4,20E-02
2450	2618	1,33E-01	1,36E-01
2465	2618	1,33E-01	1,36E-01
2466	2618	1,33E-01	1,36E-01
2449	2618	1,33E-01	1,36E-01
2467	2619	1,17E-01	1,20E-01
2466	2619	1,17E-01	1,20E-01
2450	2619	1,17E-01	1,20E-01
2451	2619	1,17E-01	1,20E-01
2467	2620	1,08E-01	1,13E-01
2451	2620	1,08E-01	1,13E-01
2452	2620	1,08E-01	1,13E-01
2468	2620	1,08E-01	1,13E-01
2469	2621	1,01E-01	1,06E-01
2452	2621	1,01E-01	1,06E-01
2468	2621	1,01E-01	1,06E-01
2453	2621	1,01E-01	1,06E-01
2470	2622	9,43E-02	9,87E-02
2453	2622	9,43E-02	9,87E-02
2469	2622	9,43E-02	9,87E-02
2454	2622	9,43E-02	9,87E-02
2454	2623	8,74E-02	9,14E-02
2455	2623	8,74E-02	9,14E-02
2471	2623	8,74E-02	9,14E-02
2470	2623	8,74E-02	9,14E-02
2471	2624	8,06E-02	8,45E-02
2472	2624	8,06E-02	8,45E-02
2455	2624	8,06E-02	8,45E-02
2456	2624	8,06E-02	8,45E-02
2456	2625	7,43E-02	7,79E-02
2457	2625	7,43E-02	7,79E-02
2473	2625	7,43E-02	7,79E-02
2472	2625	7,43E-02	7,79E-02
2458	2626	6,83E-02	7,18E-02
2457	2626	6,83E-02	7,18E-02
2474	2626	6,83E-02	7,18E-02
2473	2626	6,83E-02	7,18E-02
2459	2627	6,29E-02	6,61E-02
2475	2627	6,29E-02	6,61E-02
2458	2627	6,29E-02	6,61E-02
2474	2627	6,29E-02	6,61E-02
2460	2628	5,80E-02	6,09E-02
2459	2628	5,80E-02	6,09E-02
2475	2628	5,80E-02	6,09E-02
2476	2628	5,80E-02	6,09E-02
2460	2629	5,39E-02	5,65E-02
2476	2629	5,39E-02	5,65E-02
2477	2629	5,39E-02	5,65E-02
2461	2629	5,39E-02	5,65E-02
2462	2630	5,11E-02	5,23E-02
2478	2630	5,11E-02	5,23E-02
2461	2630	5,11E-02	5,23E-02
2477	2630	5,11E-02	5,23E-02
2478	2631	4,97E-02	4,80E-02
2462	2631	4,97E-02	4,80E-02
2479	2631	4,97E-02	4,80E-02
2463	2631	4,97E-02	4,80E-02
2480	2632	4,93E-02	4,47E-02
2464	2632	4,93E-02	4,47E-02
2463	2632	4,93E-02	4,47E-02
2479	2632	4,93E-02	4,47E-02
2481	2633	1,06E-01	1,07E-01
2465	2633	1,06E-01	1,07E-01
2466	2633	1,06E-01	1,07E-01
2482	2633	1,06E-01	1,07E-01
2467	2634	9,99E-02	1,03E-01
2482	2634	9,99E-02	1,03E-01
2466	2634	9,99E-02	1,03E-01
2483	2634	9,99E-02	1,03E-01
2483	2635	1,05E-01	1,06E-01
2484	2635	1,05E-01	1,06E-01
2468	2635	1,05E-01	1,06E-01
2467	2635	1,05E-01	1,06E-01
2468	2636	1,03E-01	1,03E-01
2469	2636	1,03E-01	1,03E-01
2485	2636	1,03E-01	1,03E-01
2484	2636	1,03E-01	1,03E-01
2485	2637	9,75E-02	9,72E-02
2470	2637	9,75E-02	9,72E-02
2486	2637	9,75E-02	9,72E-02
2469	2637	9,75E-02	9,72E-02
2487	2638	9,11E-02	9,07E-02
2471	2638	9,11E-02	9,07E-02
2486	2638	9,11E-02	9,07E-02
2470	2638	9,11E-02	9,07E-02
2471	2639	8,45E-02	8,40E-02
2472	2639	8,45E-02	8,40E-02
2488	2639	8,45E-02	8,40E-02
2487	2639	8,45E-02	8,40E-02
2489	2640	7,83E-02	7,78E-02
2473	2640	7,83E-02	7,78E-02
2472	2640	7,83E-02	7,78E-02
2488	2640	7,83E-02	7,78E-02
2473	2641	7,25E-02	7,21E-02
2489	2641	7,25E-02	7,21E-02
2490	2641	7,25E-02	7,21E-02
2474	2641	7,25E-02	7,21E-02
2474	2642	6,72E-02	6,69E-02
2475	2642	6,72E-02	6,69E-02
2491	2642	6,72E-02	6,69E-02
2490	2642	6,72E-02	6,69E-02
2475	2643	6,26E-02	6,23E-02
2491	2643	6,26E-02	6,23E-02
2492	2643	6,26E-02	6,23E-02
2476	2643	6,26E-02	6,23E-02
2492	2644	5,85E-02	5,83E-02
2493	2644	5,85E-02	5,83E-02
2477	2644	5,85E-02	5,83E-02
2476	2644	5,85E-02	5,83E-02
2478	2645	5,54E-02	5,51E-02
2494	2645	5,54E-02	5,51E-02
2493	2645	5,54E-02	5,51E-02
2477	2645	5,54E-02	5,51E-02
2479	2646	5,38E-02	5,19E-02
2494	2646	5,38E-02	5,19E-02
2495	2646	5,38E-02	5,19E-02
2478	2646	5,38E-02	5,19E-02
2495	2647	5,34E-02	4,87E-02
2496	2647	5,34E-02	4,87E-02
2480	2647	5,34E-02	4,87E-02
2479	2647	5,34E-02	4,87E-02
2481	2648	7,96E-02	7,85E-02
2482	2648	7,96E-02	7,85E-02
2497	2648	7,96E-02	7,85E-02
2498	2648	7,96E-02	7,85E-02
2482	2649	8,69E-02	8,48E-02
2499	2649	8,69E-02	8,48E-02
2483	2649	8,69E-02	8,48E-02
2498	2649	8,69E-02	8,48E-02
2500	2650	1,00E-01	9,58E-02
2483	2650	1,00E-01	9,58E-02
2499	2650	1,00E-01	9,58E-02
2484	2650	1,00E-01	9,58E-02
2484	2651	1,02E-01	9,65E-02
2500	2651	1,02E-01	9,65E-02
2485	2651	1,02E-01	9,65E-02
2501	2651	1,02E-01	9,65E-02
2485	2652	9,82E-02	9,30E-02
2502	2652	9,82E-02	9,30E-02
2501	2652	9,82E-02	9,30E-02
2486	2652	9,82E-02	9,30E-02
2487	2653	9,28E-02	8,79E-02
2503	2653	9,28E-02	8,79E-02
2502	2653	9,28E-02	8,79E-02
2486	2653	9,28E-02	8,79E-02
2487	2654	8,72E-02	8,25E-02
2488	2654	8,72E-02	8,25E-02
2504	2654	8,72E-02	8,25E-02
2503	2654	8,72E-02	8,25E-02
2504	2655	8,16E-02	7,71E-02
2505	2655	8,16E-02	7,71E-02
2489	2655	8,16E-02	7,71E-02
2488	2655	8,16E-02	7,71E-02
2489	2656	7,63E-02	7,22E-02
2505	2656	7,63E-02	7,22E-02
2506	2656	7,63E-02	7,22E-02
2490	2656	7,63E-02	7,22E-02
2490	2657	7,14E-02	6,77E-02
2506	2657	7,14E-02	6,77E-02
2491	2657	7,14E-02	6,77E-02
2507	2657	7,14E-02	6,77E-02
2491	2658	6,70E-02	6,37E-02
2508	2658	6,70E-02	6,37E-02
2492	2658	6,70E-02	6,37E-02
2507	2658	6,70E-02	6,37E-02
2508	2659	6,30E-02	6,04E-02
2492	2659	6,30E-02	6,04E-02
2493	2659	6,30E-02	6,04E-02
2509	2659	6,30E-02	6,04E-02
2494	2660	5,94E-02	5,81E-02
2510	2660	5,94E-02	5,81E-02
2509	2660	5,94E-02	5,81E-02
2493	2660	5,94E-02	5,81E-02
2494	2661	5,66E-02	5,71E-02
2495	2661	5,66E-02	5,71E-02
2511	2661	5,66E-02	5,71E-02
2510	2661	5,66E-02	5,71E-02
2496	2662	5,66E-02	5,53E-02
2511	2662	5,66E-02	5,53E-02
2495	2662	5,66E-02	5,53E-02
2512	2662	5,66E-02	5,53E-02
2513	2663	6,10E-02	5,85E-02
2514	2663	6,10E-02	5,85E-02
2497	2663	6,10E-02	5,85E-02
2498	2663	6,10E-02	5,85E-02
2498	2664	7,82E-02	6,66E-02
2515	2664	7,82E-02	6,66E-02
2499	2664	7,82E-02	6,66E-02
2514	2664	7,82E-02	6,66E-02
2499	2665	9,28E-02	8,12E-02
2515	2665	9,28E-02	8,12E-02
2500	2665	9,28E-02	8,12E-02
2516	2665	9,28E-02	8,12E-02
2501	2666	9,68E-02	8,62E-02
2500	2666	9,68E-02	8,62E-02
2516	2666	9,68E-02	8,62E-02
2517	2666	9,68E-02	8,62E-02
2502	2667	9,62E-02	8,63E-02
2501	2667	9,62E-02	8,63E-02
2517	2667	9,62E-02	8,63E-02
2518	2667	9,62E-02	8,63E-02
2519	2668	9,31E-02	8,38E-02
2518	2668	9,31E-02	8,38E-02
2502	2668	9,31E-02	8,38E-02
2503	2668	9,31E-02	8,38E-02
2520	2669	8,90E-02	8,03E-02
2503	2669	8,90E-02	8,03E-02
2504	2669	8,90E-02	8,03E-02
2519	2669	8,90E-02	8,03E-02
2504	2670	8,45E-02	7,64E-02
2505	2670	8,45E-02	7,64E-02
2520	2670	8,45E-02	7,64E-02
2521	2670	8,45E-02	7,64E-02
2522	2671	7,99E-02	7,25E-02
2506	2671	7,99E-02	7,25E-02
2505	2671	7,99E-02	7,25E-02
2521	2671	7,99E-02	7,25E-02
2507	2672	7,55E-02	6,88E-02
2522	2672	7,55E-02	6,88E-02
2523	2672	7,55E-02	6,88E-02
2506	2672	7,55E-02	6,88E-02
2508	2673	7,14E-02	6,55E-02
2524	2673	7,14E-02	6,55E-02
2507	2673	7,14E-02	6,55E-02
2523	2673	7,14E-02	6,55E-02
2525	2674	6,76E-02	6,28E-02
2524	2674	6,76E-02	6,28E-02
2508	2674	6,76E-02	6,28E-02
2509	2674	6,76E-02	6,28E-02
2510	2675	6,41E-02	6,09E-02
2525	2675	6,41E-02	6,09E-02
2509	2675	6,41E-02	6,09E-02
2526	2675	6,41E-02	6,09E-02
2511	2676	6,06E-02	6,06E-02
2526	2676	6,06E-02	6,06E-02
2510	2676	6,06E-02	6,06E-02
2527	2676	6,06E-02	6,06E-02
2512	2677	5,76E-02	6,24E-02
2527	2677	5,76E-02	6,24E-02
2528	2677	5,76E-02	6,24E-02
2511	2677	5,76E-02	6,24E-02
2513	2678	3,36E-02	3,21E-02
2530	2678	3,36E-02	3,21E-02
2529	2678	3,36E-02	3,21E-02
2514	2678	3,36E-02	3,21E-02
2515	2679	4,30E-02	3,44E-02
2530	2679	4,30E-02	3,44E-02
2514	2679	4,30E-02	3,44E-02
2531	2679	4,30E-02	3,44E-02
2532	2680	4,91E-02	4,17E-02
2515	2680	4,91E-02	4,17E-02
2516	2680	4,91E-02	4,17E-02
2531	2680	4,91E-02	4,17E-02
2533	2681	5,19E-02	4,53E-02
2516	2681	5,19E-02	4,53E-02
2532	2681	5,19E-02	4,53E-02
2517	2681	5,19E-02	4,53E-02
2518	2682	5,19E-02	4,59E-02
2533	2682	5,19E-02	4,59E-02
2517	2682	5,19E-02	4,59E-02
2534	2682	5,19E-02	4,59E-02
2518	2683	5,07E-02	4,52E-02
2535	2683	5,07E-02	4,52E-02
2534	2683	5,07E-02	4,52E-02
2519	2683	5,07E-02	4,52E-02
2535	2684	4,88E-02	4,37E-02
2520	2684	4,88E-02	4,37E-02
2519	2684	4,88E-02	4,37E-02
2536	2684	4,88E-02	4,37E-02
2520	2685	4,65E-02	4,18E-02
2521	2685	4,65E-02	4,18E-02
2537	2685	4,65E-02	4,18E-02
2536	2685	4,65E-02	4,18E-02
2538	2686	4,41E-02	3,98E-02
2522	2686	4,41E-02	3,98E-02
2537	2686	4,41E-02	3,98E-02
2521	2686	4,41E-02	3,98E-02
2539	2687	4,18E-02	3,79E-02
2522	2687	4,18E-02	3,79E-02
2538	2687	4,18E-02	3,79E-02
2523	2687	4,18E-02	3,79E-02
2540	2688	3,95E-02	3,62E-02
2539	2688	3,95E-02	3,62E-02
2524	2688	3,95E-02	3,62E-02
2523	2688	3,95E-02	3,62E-02
2524	2689	3,74E-02	3,48E-02
2541	2689	3,74E-02	3,48E-02
2525	2689	3,74E-02	3,48E-02
2540	2689	3,74E-02	3,48E-02
2541	2690	3,55E-02	3,36E-02
2542	2690	3,55E-02	3,36E-02
2526	2690	3,55E-02	3,36E-02
2525	2690	3,55E-02	3,36E-02
2527	2691	3,37E-02	3,32E-02
2526	2691	3,37E-02	3,32E-02
2542	2691	3,37E-02	3,32E-02
2543	2691	3,37E-02	3,32E-02
2544	2692	3,09E-02	3,43E-02
2527	2692	3,09E-02	3,43E-02
2528	2692	3,09E-02	3,43E-02
2543	2692	3,09E-02	3,43E-02
2658	2768	3,58E-01	3,66E-01
2641	2768	3,58E-01	3,66E-01
2657	2768	3,58E-01	3,66E-01
2642	2768	3,58E-01	3,66E-01
2642	2769	3,37E-01	3,43E-01
2643	2769	3,37E-01	3,43E-01
2659	2769	3,37E-01	3,43E-01
2658	2769	3,37E-01	3,43E-01
2659	2770	3,12E-01	3,19E-01
2644	2770	3,12E-01	3,19E-01
2660	2770	3,12E-01	3,19E-01
2643	2770	3,12E-01	3,19E-01
2661	2771	2,88E-01	2,96E-01
2660	2771	2,88E-01	2,96E-01
2645	2771	2,88E-01	2,96E-01
2644	2771	2,88E-01	2,96E-01
2646	2772	2,65E-01	2,71E-01
2661	2772	2,65E-01	2,71E-01
2662	2772	2,65E-01	2,71E-01
2645	2772	2,65E-01	2,71E-01
2646	2773	2,41E-01	2,48E-01
2662	2773	2,41E-01	2,48E-01
2663	2773	2,41E-01	2,48E-01
2647	2773	2,41E-01	2,48E-01
2664	2774	2,17E-01	2,24E-01
2648	2774	2,17E-01	2,24E-01
2647	2774	2,17E-01	2,24E-01
2663	2774	2,17E-01	2,24E-01
2665	2775	1,94E-01	2,00E-01
2648	2775	1,94E-01	2,00E-01
2664	2775	1,94E-01	2,00E-01
2649	2775	1,94E-01	2,00E-01
2649	2776	1,70E-01	1,77E-01
2665	2776	1,70E-01	1,77E-01
2650	2776	1,70E-01	1,77E-01
2666	2776	1,70E-01	1,77E-01
2667	2777	1,47E-01	1,54E-01
2650	2777	1,47E-01	1,54E-01
2666	2777	1,47E-01	1,54E-01
2651	2777	1,47E-01	1,54E-01
2668	2778	1,24E-01	1,31E-01
2667	2778	1,24E-01	1,31E-01
2652	2778	1,24E-01	1,31E-01
2651	2778	1,24E-01	1,31E-01
2653	2779	1,01E-01	1,08E-01
2669	2779	1,01E-01	1,08E-01
2652	2779	1,01E-01	1,08E-01
2668	2779	1,01E-01	1,08E-01
2670	2780	7,99E-02	8,70E-02
2653	2780	7,99E-02	8,70E-02
2654	2780	7,99E-02	8,70E-02
2669	2780	7,99E-02	8,70E-02
2654	2781	6,10E-02	6,76E-02
2671	2781	6,10E-02	6,76E-02
2670	2781	6,10E-02	6,76E-02
2655	2781	6,10E-02	6,76E-02
2672	2782	4,81E-02	5,23E-02
2671	2782	4,81E-02	5,23E-02
2656	2782	4,81E-02	5,23E-02
2655	2782	4,81E-02	5,23E-02
2658	2783	3,38E-01	3,43E-01
2657	2783	3,38E-01	3,43E-01
2674	2783	3,38E-01	3,43E-01
2673	2783	3,38E-01	3,43E-01
2659	2784	3,13E-01	3,15E-01
2674	2784	3,13E-01	3,15E-01
2675	2784	3,13E-01	3,15E-01
2658	2784	3,13E-01	3,15E-01
2675	2785	2,89E-01	2,91E-01
2676	2785	2,89E-01	2,91E-01
2659	2785	2,89E-01	2,91E-01
2660	2785	2,89E-01	2,91E-01
2677	2786	2,68E-01	2,71E-01
2676	2786	2,68E-01	2,71E-01
2661	2786	2,68E-01	2,71E-01
2660	2786	2,68E-01	2,71E-01
2661	2787	2,46E-01	2,49E-01
2662	2787	2,46E-01	2,49E-01
2678	2787	2,46E-01	2,49E-01
2677	2787	2,46E-01	2,49E-01
2678	2788	2,24E-01	2,27E-01
2663	2788	2,24E-01	2,27E-01
2662	2788	2,24E-01	2,27E-01
2679	2788	2,24E-01	2,27E-01
2663	2789	2,02E-01	2,05E-01
2680	2789	2,02E-01	2,05E-01
2679	2789	2,02E-01	2,05E-01
2664	2789	2,02E-01	2,05E-01
2664	2790	1,80E-01	1,83E-01
2665	2790	1,80E-01	1,83E-01
2681	2790	1,80E-01	1,83E-01
2680	2790	1,80E-01	1,83E-01
2681	2791	1,59E-01	1,62E-01
2666	2791	1,59E-01	1,62E-01
2682	2791	1,59E-01	1,62E-01
2665	2791	1,59E-01	1,62E-01
2682	2792	1,37E-01	1,40E-01
2666	2792	1,37E-01	1,40E-01
2667	2792	1,37E-01	1,40E-01
2683	2792	1,37E-01	1,40E-01
2667	2793	1,16E-01	1,19E-01
2684	2793	1,16E-01	1,19E-01
2668	2793	1,16E-01	1,19E-01
2683	2793	1,16E-01	1,19E-01
2685	2794	9,55E-02	9,87E-02
2669	2794	9,55E-02	9,87E-02
2668	2794	9,55E-02	9,87E-02
2684	2794	9,55E-02	9,87E-02
2670	2795	7,56E-02	7,93E-02
2686	2795	7,56E-02	7,93E-02
2685	2795	7,56E-02	7,93E-02
2669	2795	7,56E-02	7,93E-02
2686	2796	5,84E-02	6,18E-02
2671	2796	5,84E-02	6,18E-02
2670	2796	5,84E-02	6,18E-02
2687	2796	5,84E-02	6,18E-02
2688	2797	4,48E-02	4,57E-02
2672	2797	4,48E-02	4,57E-02
2687	2797	4,48E-02	4,57E-02
2671	2797	4,48E-02	4,57E-02
2674	2798	3,15E-01	3,30E-01
2690	2798	3,15E-01	3,30E-01
2673	2798	3,15E-01	3,30E-01
2689	2798	3,15E-01	3,30E-01
2674	2799	2,80E-01	2,97E-01
2691	2799	2,80E-01	2,97E-01
2675	2799	2,80E-01	2,97E-01
2690	2799	2,80E-01	2,97E-01
2676	2800	2,58E-01	2,76E-01
2675	2800	2,58E-01	2,76E-01
2692	2800	2,58E-01	2,76E-01
2691	2800	2,58E-01	2,76E-01
2693	2801	2,38E-01	2,56E-01
2676	2801	2,38E-01	2,56E-01
2692	2801	2,38E-01	2,56E-01
2677	2801	2,38E-01	2,56E-01
2677	2802	2,18E-01	2,35E-01
2694	2802	2,18E-01	2,35E-01
2678	2802	2,18E-01	2,35E-01
2693	2802	2,18E-01	2,35E-01
2694	2803	1,98E-01	2,15E-01
2679	2803	1,98E-01	2,15E-01
2678	2803	1,98E-01	2,15E-01
2695	2803	1,98E-01	2,15E-01
2695	2804	1,78E-01	1,95E-01
2696	2804	1,78E-01	1,95E-01
2679	2804	1,78E-01	1,95E-01
2680	2804	1,78E-01	1,95E-01
2696	2805	1,58E-01	1,75E-01
2681	2805	1,58E-01	1,75E-01
2697	2805	1,58E-01	1,75E-01
2680	2805	1,58E-01	1,75E-01
2681	2806	1,38E-01	1,56E-01
2697	2806	1,38E-01	1,56E-01
2682	2806	1,38E-01	1,56E-01
2698	2806	1,38E-01	1,56E-01
2682	2807	1,18E-01	1,36E-01
2699	2807	1,18E-01	1,36E-01
2698	2807	1,18E-01	1,36E-01
2683	2807	1,18E-01	1,36E-01
2683	2808	9,91E-02	1,16E-01
2700	2808	9,91E-02	1,16E-01
2684	2808	9,91E-02	1,16E-01
2699	2808	9,91E-02	1,16E-01
2685	2809	8,04E-02	9,73E-02
2684	2809	8,04E-02	9,73E-02
2701	2809	8,04E-02	9,73E-02
2700	2809	8,04E-02	9,73E-02
2686	2810	6,28E-02	7,88E-02
2702	2810	6,28E-02	7,88E-02
2685	2810	6,28E-02	7,88E-02
2701	2810	6,28E-02	7,88E-02
2703	2811	4,85E-02	6,22E-02
2702	2811	4,85E-02	6,22E-02
2686	2811	4,85E-02	6,22E-02
2687	2811	4,85E-02	6,22E-02
2704	2812	4,05E-02	4,79E-02
2687	2812	4,05E-02	4,79E-02
2688	2812	4,05E-02	4,79E-02
2703	2812	4,05E-02	4,79E-02
2705	2813	2,97E-01	2,88E-01
2689	2813	2,97E-01	2,88E-01
2690	2813	2,97E-01	2,88E-01
2706	2813	2,97E-01	2,88E-01
2690	2814	2,91E-01	2,85E-01
2706	2814	2,91E-01	2,85E-01
2691	2814	2,91E-01	2,85E-01
2707	2814	2,91E-01	2,85E-01
2691	2815	2,71E-01	2,65E-01
2707	2815	2,71E-01	2,65E-01
2708	2815	2,71E-01	2,65E-01
2692	2815	2,71E-01	2,65E-01
2708	2816	2,52E-01	2,45E-01
2692	2816	2,52E-01	2,45E-01
2693	2816	2,52E-01	2,45E-01
2709	2816	2,52E-01	2,45E-01
2710	2817	2,32E-01	2,25E-01
2709	2817	2,32E-01	2,25E-01
2693	2817	2,32E-01	2,25E-01
2694	2817	2,32E-01	2,25E-01
2695	2818	2,12E-01	2,06E-01
2710	2818	2,12E-01	2,06E-01
2694	2818	2,12E-01	2,06E-01
2711	2818	2,12E-01	2,06E-01
2711	2819	1,93E-01	1,86E-01
2712	2819	1,93E-01	1,86E-01
2696	2819	1,93E-01	1,86E-01
2695	2819	1,93E-01	1,86E-01
2696	2820	1,73E-01	1,67E-01
2712	2820	1,73E-01	1,67E-01
2713	2820	1,73E-01	1,67E-01
2697	2820	1,73E-01	1,67E-01
2697	2821	1,54E-01	1,48E-01
2713	2821	1,54E-01	1,48E-01
2698	2821	1,54E-01	1,48E-01
2714	2821	1,54E-01	1,48E-01
2698	2822	1,35E-01	1,29E-01
2699	2822	1,35E-01	1,29E-01
2715	2822	1,35E-01	1,29E-01
2714	2822	1,35E-01	1,29E-01
2715	2823	1,16E-01	1,10E-01
2699	2823	1,16E-01	1,10E-01
2700	2823	1,16E-01	1,10E-01
2716	2823	1,16E-01	1,10E-01
2700	2824	9,79E-02	9,26E-02
2716	2824	9,79E-02	9,26E-02
2717	2824	9,79E-02	9,26E-02
2701	2824	9,79E-02	9,26E-02
2717	2825	8,11E-02	7,62E-02
2701	2825	8,11E-02	7,62E-02
2702	2825	8,11E-02	7,62E-02
2718	2825	8,11E-02	7,62E-02
2718	2826	6,63E-02	6,29E-02
2702	2826	6,63E-02	6,29E-02
2719	2826	6,63E-02	6,29E-02
2703	2826	6,63E-02	6,29E-02
2720	2827	5,54E-02	5,50E-02
2704	2827	5,54E-02	5,50E-02
2703	2827	5,54E-02	5,50E-02
2719	2827	5,54E-02	5,50E-02
2916	2952	1,22E-14	1,31E-14
2931	2952	1,22E-14	1,31E-14
2932	2952	1,22E-14	1,31E-14
2915	2952	1,22E-14	1,31E-14
2917	2953	9,17E-15	9,77E-15
2932	2953	9,17E-15	9,77E-15
2933	2953	9,17E-15	9,77E-15
2916	2953	9,17E-15	9,77E-15
2918	2954	5,89E-15	6,43E-15
2934	2954	5,89E-15	6,43E-15
2933	2954	5,89E-15	6,43E-15
2917	2954	5,89E-15	6,43E-15
2919	2955	5,65E-15	6,51E-15
2918	2955	5,65E-15	6,51E-15
2934	2955	5,65E-15	6,51E-15
2935	2955	5,65E-15	6,51E-15
2936	2956	8,31E-15	7,80E-15
2919	2956	8,31E-15	7,80E-15
2920	2956	8,31E-15	7,80E-15
2935	2956	8,31E-15	7,80E-15
2920	2957	1,11E-14	8,61E-15
2921	2957	1,11E-14	8,61E-15
2937	2957	1,11E-14	8,61E-15
2936	2957	1,11E-14	8,61E-15
2937	2958	8,73E-15	7,59E-15
2921	2958	8,73E-15	7,59E-15
2922	2958	8,73E-15	7,59E-15
2938	2958	8,73E-15	7,59E-15
2938	2959	8,50E-15	9,32E-15
2922	2959	8,50E-15	9,32E-15
2923	2959	8,50E-15	9,32E-15
2939	2959	8,50E-15	9,32E-15
2924	2960	1,03E-14	1,26E-14
2923	2960	1,03E-14	1,26E-14
2939	2960	1,03E-14	1,26E-14
2940	2960	1,03E-14	1,26E-14
2925	2961	1,36E-14	1,72E-14
2924	2961	1,36E-14	1,72E-14
2940	2961	1,36E-14	1,72E-14
2941	2961	1,36E-14	1,72E-14
2941	2962	1,46E-14	1,61E-14
2926	2962	1,46E-14	1,61E-14
2942	2962	1,46E-14	1,61E-14
2925	2962	1,46E-14	1,61E-14
2926	2963	1,19E-14	1,32E-14
2927	2963	1,19E-14	1,32E-14
2942	2963	1,19E-14	1,32E-14
2943	2963	1,19E-14	1,32E-14
2927	2964	1,44E-14	1,38E-14
2943	2964	1,44E-14	1,38E-14
2928	2964	1,44E-14	1,38E-14
2944	2964	1,44E-14	1,38E-14
2944	2965	1,86E-14	1,23E-14
2929	2965	1,86E-14	1,23E-14
2945	2965	1,86E-14	1,23E-14
2928	2965	1,86E-14	1,23E-14
2945	2966	1,39E-14	1,10E-14
2929	2966	1,39E-14	1,10E-14
2946	2966	1,39E-14	1,10E-14
2930	2966	1,39E-14	1,10E-14
2932	2967	9,46E-15	9,97E-15
2948	2967	9,46E-15	9,97E-15
2931	2967	9,46E-15	9,97E-15
2947	2967	9,46E-15	9,97E-15
2949	2968	1,07E-14	1,09E-14
2948	2968	1,07E-14	1,09E-14
2932	2968	1,07E-14	1,09E-14
2933	2968	1,07E-14	1,09E-14
2933	2969	7,12E-15	7,39E-15
2949	2969	7,12E-15	7,39E-15
2950	2969	7,12E-15	7,39E-15
2934	2969	7,12E-15	7,39E-15
2935	2970	3,63E-15	4,09E-15
2934	2970	3,63E-15	4,09E-15
2950	2970	3,63E-15	4,09E-15
2951	2970	3,63E-15	4,09E-15
2935	2971	6,05E-15	6,71E-15
2951	2971	6,05E-15	6,71E-15
2936	2971	6,05E-15	6,71E-15
2952	2971	6,05E-15	6,71E-15
2936	2972	9,76E-15	9,71E-15
2953	2972	9,76E-15	9,71E-15
2937	2972	9,76E-15	9,71E-15
2952	2972	9,76E-15	9,71E-15
2937	2973	7,63E-15	7,55E-15
2953	2973	7,63E-15	7,55E-15
2954	2973	7,63E-15	7,55E-15
2938	2973	7,63E-15	7,55E-15
2938	2974	6,61E-15	6,21E-15
2954	2974	6,61E-15	6,21E-15
2939	2974	6,61E-15	6,21E-15
2955	2974	6,61E-15	6,21E-15
2939	2975	7,76E-15	9,14E-15
2940	2975	7,76E-15	9,14E-15
2956	2975	7,76E-15	9,14E-15
2955	2975	7,76E-15	9,14E-15
2941	2976	8,99E-15	1,26E-14
2956	2976	8,99E-15	1,26E-14
2957	2976	8,99E-15	1,26E-14
2940	2976	8,99E-15	1,26E-14
2942	2977	1,09E-14	1,40E-14
2941	2977	1,09E-14	1,40E-14
2958	2977	1,09E-14	1,40E-14
2957	2977	1,09E-14	1,40E-14
2942	2978	1,10E-14	1,23E-14
2959	2978	1,10E-14	1,23E-14
2943	2978	1,10E-14	1,23E-14
2958	2978	1,10E-14	1,23E-14
2959	2979	1,26E-14	1,28E-14
2943	2979	1,26E-14	1,28E-14
2960	2979	1,26E-14	1,28E-14
2944	2979	1,26E-14	1,28E-14
2961	2980	1,46E-14	1,44E-14
2945	2980	1,46E-14	1,44E-14
2960	2980	1,46E-14	1,44E-14
2944	2980	1,46E-14	1,44E-14
2961	2981	1,34E-14	1,34E-14
2945	2981	1,34E-14	1,34E-14
2962	2981	1,34E-14	1,34E-14
2946	2981	1,34E-14	1,34E-14
2948	2982	7,84E-15	8,20E-15
2963	2982	7,84E-15	8,20E-15
2947	2982	7,84E-15	8,20E-15
2964	2982	7,84E-15	8,20E-15
2949	2983	8,18E-15	7,95E-15
2964	2983	8,18E-15	7,95E-15
2965	2983	8,18E-15	7,95E-15
2948	2983	8,18E-15	7,95E-15
2949	2984	6,91E-15	6,26E-15
2965	2984	6,91E-15	6,26E-15
2966	2984	6,91E-15	6,26E-15
2950	2984	6,91E-15	6,26E-15
2951	2985	6,41E-15	6,43E-15
2966	2985	6,41E-15	6,43E-15
2967	2985	6,41E-15	6,43E-15
2950	2985	6,41E-15	6,43E-15
2967	2986	7,37E-15	8,39E-15
2968	2986	7,37E-15	8,39E-15
2951	2986	7,37E-15	8,39E-15
2952	2986	7,37E-15	8,39E-15
2953	2987	7,54E-15	8,89E-15
2969	2987	7,54E-15	8,89E-15
2968	2987	7,54E-15	8,89E-15
2952	2987	7,54E-15	8,89E-15
2969	2988	6,53E-15	6,68E-15
2970	2988	6,53E-15	6,68E-15
2953	2988	6,53E-15	6,68E-15
2954	2988	6,53E-15	6,68E-15
2954	2989	7,74E-15	6,58E-15
2970	2989	7,74E-15	6,58E-15
2955	2989	7,74E-15	6,58E-15
2971	2989	7,74E-15	6,58E-15
2955	2990	8,37E-15	8,44E-15
2956	2990	8,37E-15	8,44E-15
2972	2990	8,37E-15	8,44E-15
2971	2990	8,37E-15	8,44E-15
2972	2991	7,65E-15	1,04E-14
2973	2991	7,65E-15	1,04E-14
2956	2991	7,65E-15	1,04E-14
2957	2991	7,65E-15	1,04E-14
2974	2992	1,23E-14	1,24E-14
2957	2992	1,23E-14	1,24E-14
2958	2992	1,23E-14	1,24E-14
2973	2992	1,23E-14	1,24E-14
2974	2993	9,28E-15	8,08E-15
2958	2993	9,28E-15	8,08E-15
2975	2993	9,28E-15	8,08E-15
2959	2993	9,28E-15	8,08E-15
2959	2994	5,86E-15	6,19E-15
2976	2994	5,86E-15	6,19E-15
2960	2994	5,86E-15	6,19E-15
2975	2994	5,86E-15	6,19E-15
2960	2995	1,06E-14	1,02E-14
2976	2995	1,06E-14	1,02E-14
2977	2995	1,06E-14	1,02E-14
2961	2995	1,06E-14	1,02E-14
2977	2996	1,20E-14	1,46E-14
2961	2996	1,20E-14	1,46E-14
2962	2996	1,20E-14	1,46E-14
2978	2996	1,20E-14	1,46E-14
2980	2997	6,07E-15	6,57E-15
2964	2997	6,07E-15	6,57E-15
2979	2997	6,07E-15	6,57E-15
2963	2997	6,07E-15	6,57E-15
2981	2998	4,56E-15	4,41E-15
2980	2998	4,56E-15	4,41E-15
2964	2998	4,56E-15	4,41E-15
2965	2998	4,56E-15	4,41E-15
2981	2999	6,24E-15	5,71E-15
2966	2999	6,24E-15	5,71E-15
2965	2999	6,24E-15	5,71E-15
2982	2999	6,24E-15	5,71E-15
2967	3000	9,82E-15	9,38E-15
2982	3000	9,82E-15	9,38E-15
2983	3000	9,82E-15	9,38E-15
2966	3000	9,82E-15	9,38E-15
2983	3001	9,79E-15	8,70E-15
2984	3001	9,79E-15	8,70E-15
2967	3001	9,79E-15	8,70E-15
2968	3001	9,79E-15	8,70E-15
2969	3002	6,90E-15	6,07E-15
2968	3002	6,90E-15	6,07E-15
2984	3002	6,90E-15	6,07E-15
2985	3002	6,90E-15	6,07E-15
2985	3003	5,05E-15	4,60E-15
2969	3003	5,05E-15	4,60E-15
2986	3003	5,05E-15	4,60E-15
2970	3003	5,05E-15	4,60E-15
2970	3004	7,20E-15	6,24E-15
2987	3004	7,20E-15	6,24E-15
2986	3004	7,20E-15	6,24E-15
2971	3004	7,20E-15	6,24E-15
2987	3005	6,31E-15	5,90E-15
2971	3005	6,31E-15	5,90E-15
2972	3005	6,31E-15	5,90E-15
2988	3005	6,31E-15	5,90E-15
2988	3006	4,73E-15	6,74E-15
2973	3006	4,73E-15	6,74E-15
2972	3006	4,73E-15	6,74E-15
2989	3006	4,73E-15	6,74E-15
2990	3007	1,30E-14	1,01E-14
2989	3007	1,30E-14	1,01E-14
2974	3007	1,30E-14	1,01E-14
2973	3007	1,30E-14	1,01E-14
2974	3008	1,29E-14	6,93E-15
2990	3008	1,29E-14	6,93E-15
2975	3008	1,29E-14	6,93E-15
2991	3008	1,29E-14	6,93E-15
2976	3009	8,49E-15	6,80E-15
2992	3009	8,49E-15	6,80E-15
2975	3009	8,49E-15	6,80E-15
2991	3009	8,49E-15	6,80E-15
2976	3010	1,24E-14	1,17E-14
2993	3010	1,24E-14	1,17E-14
2992	3010	1,24E-14	1,17E-14
2977	3010	1,24E-14	1,17E-14
2993	3011	1,28E-14	1,51E-14
2977	3011	1,28E-14	1,51E-14
2994	3011	1,28E-14	1,51E-14
2978	3011	1,28E-14	1,51E-14
2980	3012	8,35E-15	8,72E-15
2995	3012	8,35E-15	8,72E-15
2979	3012	8,35E-15	8,72E-15
2996	3012	8,35E-15	8,72E-15
2997	3013	7,48E-15	7,12E-15
2996	3013	7,48E-15	7,12E-15
2980	3013	7,48E-15	7,12E-15
2981	3013	7,48E-15	7,12E-15
2982	3014	7,18E-15	6,62E-15
2981	3014	7,18E-15	6,62E-15
2998	3014	7,18E-15	6,62E-15
2997	3014	7,18E-15	6,62E-15
2983	3015	8,41E-15	8,35E-15
2982	3015	8,41E-15	8,35E-15
2998	3015	8,41E-15	8,35E-15
2999	3015	8,41E-15	8,35E-15
2984	3016	7,15E-15	5,86E-15
2983	3016	7,15E-15	5,86E-15
3000	3016	7,15E-15	5,86E-15
2999	3016	7,15E-15	5,86E-15
2985	3017	8,29E-15	6,10E-15
2984	3017	8,29E-15	6,10E-15
3000	3017	8,29E-15	6,10E-15
3001	3017	8,29E-15	6,10E-15
3002	3018	7,83E-15	6,37E-15
3001	3018	7,83E-15	6,37E-15
2985	3018	7,83E-15	6,37E-15
2986	3018	7,83E-15	6,37E-15
2986	3019	9,32E-15	7,31E-15
2987	3019	9,32E-15	7,31E-15
3003	3019	9,32E-15	7,31E-15
3002	3019	9,32E-15	7,31E-15
3004	3020	8,30E-15	7,45E-15
2987	3020	8,30E-15	7,45E-15
3003	3020	8,30E-15	7,45E-15
2988	3020	8,30E-15	7,45E-15
3004	3021	6,31E-15	7,12E-15
2988	3021	6,31E-15	7,12E-15
2989	3021	6,31E-15	7,12E-15
3005	3021	6,31E-15	7,12E-15
2990	3022	1,04E-14	1,13E-14
3006	3022	1,04E-14	1,13E-14
2989	3022	1,04E-14	1,13E-14
3005	3022	1,04E-14	1,13E-14
2991	3023	1,30E-14	9,97E-15
2990	3023	1,30E-14	9,97E-15
3006	3023	1,30E-14	9,97E-15
3007	3023	1,30E-14	9,97E-15
2992	3024	1,41E-14	7,70E-15
2991	3024	1,41E-14	7,70E-15
3007	3024	1,41E-14	7,70E-15
3008	3024	1,41E-14	7,70E-15
3009	3025	1,60E-14	1,26E-14
3008	3025	1,60E-14	1,26E-14
2993	3025	1,60E-14	1,26E-14
2992	3025	1,60E-14	1,26E-14
3010	3026	1,33E-14	1,41E-14
2994	3026	1,33E-14	1,41E-14
2993	3026	1,33E-14	1,41E-14
3009	3026	1,33E-14	1,41E-14